 vasp.5.4.4.18Apr17-6-g9f103f2a35 (build May 29 2019 08:40:53) complex
 executed on             LinuxPGI date 2021.12.31  13:07:08

 INCAR:
 POTCAR:    PAW_PBE Fe_GW 31Mar2010
 POTCAR:    PAW_PBE Mn_GW 31Mar2010

   TITEL  = PAW_PBE Fe_GW 31Mar2010
   POMASS =   55.847; ZVAL   =    8.000    mass and valenz
   ENMAX  =  321.007; ENMIN  =  240.755 eV

   TITEL  = PAW_PBE Mn_GW 31Mar2010
   POMASS =   54.938; ZVAL   =    7.000    mass and valenz
   ENMAX  =  278.466; ENMIN  =  208.850 eV

 Optimization of the real space projectors (new method)

 maximal supplied QI-value         = 16.25
 optimisation between [QCUT,QGAM] = [ 11.38, 22.75] = [ 36.24,144.96] Ry
 Optimized for a Real-space Cutoff    1.47 Angstroem

   l    n(q)    QCUT    max X(q) W(low)/X(q) W(high)/X(q)  e(spline)
   2      9    11.376   131.327    0.18E-03    0.15E-03    0.32E-06
   2      9    11.376   127.187    0.18E-03    0.15E-03    0.32E-06
   0     10    11.376    16.887    0.65E-04    0.39E-04    0.15E-06
   0     10    11.376     8.663    0.39E-04    0.30E-04    0.12E-06
   1     10    11.376     5.390    0.67E-04    0.60E-04    0.14E-06
   1     10    11.376     3.548    0.40E-04    0.37E-04    0.94E-07
   3      9    11.376     4.269    0.82E-04    0.22E-03    0.14E-06
 Optimization of the real space projectors (new method)

 maximal supplied QI-value         = 15.68
 optimisation between [QCUT,QGAM] = [ 11.45, 22.90] = [ 36.71,146.85] Ry
 Optimized for a Real-space Cutoff    1.52 Angstroem

   l    n(q)    QCUT    max X(q) W(low)/X(q) W(high)/X(q)  e(spline)
   2      9    11.450   123.144    0.15E-03    0.12E-04    0.31E-06
   2      9    11.450   117.938    0.15E-03    0.12E-04    0.31E-06
   0     10    11.450    19.684    0.63E-04    0.21E-04    0.22E-06
   0     10    11.450     9.378    0.37E-04    0.16E-04    0.17E-06
   1     10    11.450     5.531    0.25E-04    0.81E-04    0.11E-06
   1     10    11.450     3.850    0.15E-04    0.46E-04    0.77E-07
   3      9    11.450     4.123    0.90E-04    0.12E-03    0.18E-06
  PAW_PBE Fe_GW 31Mar2010               :
  PAW_PBE Mn_GW 31Mar2010               :

 POSCAR: FeMn_288_20
  positions in direct lattice
  velocities in cartesian coordinates
 exchange correlation table for  LEXCH =        8
   RHO(1)=    0.500       N(1)  =     2000
   RHO(2)=  100.500       N(2)  =     4000

 ion  position               nearest neighbor table
   1  0.437  0.296  0.874- 155 2.36 135 2.36 220 2.37   7 2.42 143 2.42 133 2.43  41 2.43  80 2.44
                           132 2.44
   2  0.813  0.379  0.787- 286 2.42  73 2.43  98 2.43 167 2.43 140 2.43  91 2.43 279 2.44 148 2.44
                           142 2.44  31 2.45 252 2.46 145 2.47
   3  0.437  0.121  0.435- 178 2.42  47 2.42 215 2.43  96 2.43  88 2.43 169 2.43 176 2.43 284 2.43
                           162 2.44 152 2.44 283 2.46  40 2.46
   4  0.937  0.451  0.346-  79 2.42  30 2.43 280 2.43 240 2.43 234 2.43 185 2.43  99 2.43 196 2.43
                           250 2.43  35 2.44 203 2.44 180 2.45
   5  0.062  0.545  0.874- 252 2.36  82 2.36  93 2.36  56 2.43 143 2.43 248 2.43 172 2.43   7 2.44
                           182 2.44
   6  0.937  0.116  0.168-  10 2.36 195 2.36  13 2.36 187 2.43  44 2.43  64 2.43 212 2.43 184 2.43
                           197 2.43  15 2.46  78 2.46 271 2.46
   7  0.313  0.545  0.874- 155 2.36  93 2.36  16 2.36   1 2.42 143 2.43 133 2.43   5 2.44 127 2.44
                           182 2.44
   8  0.687  0.616  0.168- 129 2.36 117 2.36 256 2.36 174 2.43  66 2.43 197 2.43 110 2.43 224 2.43
                           187 2.43 193 2.45 102 2.45 237 2.46
   9  0.437  0.293  0.610- 265 2.42 107 2.43 151 2.43 144 2.43 154 2.43 216 2.43 229 2.43  50 2.44
                           275 2.44 113 2.44  45 2.46 259 2.46
  10  0.813  0.032  0.126- 187 2.36   6 2.36 184 2.37 195 2.43  32 2.43  68 2.43 158 2.43  13 2.44
                           129 2.44
  11  0.687  0.461  0.698- 278 2.43 276 2.43 150 2.43 142 2.43  34 2.43 243 2.43 188 2.43  42 2.44
                           268 2.44  91 2.44 216 2.44  52 2.45
  12  0.062  0.033  0.257- 271 2.42  78 2.43  63 2.43  95 2.43 123 2.43 199 2.43 213 2.43 163 2.43
                           126 2.43  39 2.43  87 2.44 273 2.45
  13  0.938  0.283  0.126- 212 2.36   6 2.36 197 2.36 117 2.43 111 2.43 247 2.43 195 2.43  68 2.43
                            10 2.44
  14  0.813  0.035  0.390- 185 2.42 179 2.43  40 2.43  79 2.43 106 2.43 214 2.43 147 2.43 264 2.43
                           192 2.43 124 2.44 284 2.45 183 2.46
  15  0.813  0.198  0.213- 271 2.42  28 2.43 122 2.43 126 2.43  78 2.43 123 2.43 257 2.44 237 2.44
                           168 2.44 184 2.45   6 2.46 197 2.46
  16  0.312  0.713  0.832-   7 2.36 182 2.37 127 2.37  38 2.42  26 2.43 223 2.43  82 2.43 155 2.44
                            93 2.44  97 2.45 109 2.46 272 2.47
  17  0.313  0.199  0.213- 201 2.43 231 2.43 199 2.43 213 2.43 122 2.43 116 2.43  78 2.43 163 2.44
                           137 2.44 108 2.45  64 2.46  22 2.46
  18  0.062  0.370  0.435- 221 2.41 170 2.42 281 2.42 146 2.43 183 2.43  24 2.43 169 2.43 161 2.44
                           215 2.44 234 2.45  79 2.46  70 2.46
  19  0.062  0.377  0.654- 275 2.43 238 2.43  50 2.43 282 2.43 153 2.43 249 2.43 112 2.43  52 2.43
                            43 2.44 274 2.44 205 2.44 276 2.45
  20  0.188  0.958  0.565- 189 2.41 118 2.42  81 2.42  45 2.43 202 2.43 235 2.43  65 2.43 210 2.43
                           219 2.44 242 2.45 107 2.46 261 2.47
  21  0.563  0.367  0.302- 211 2.43  51 2.43  37 2.43 254 2.43 200 2.43 194 2.43 168 2.43 203 2.43
                           116 2.43  62 2.44 240 2.44 149 2.44
  22  0.312  0.366  0.168- 157 2.36 247 2.36 233 2.36  66 2.43  64 2.43 110 2.43 108 2.43 212 2.43
                           263 2.43 137 2.45 231 2.45  17 2.46
  23  0.688  0.623  0.521- 251 2.38 165 2.38 159 2.39 253 2.41 166 2.42  89 2.42 204 2.43 241 2.43
                            54 2.43 207 2.43 287 2.43 225 2.44
  24  0.938  0.620  0.435- 170 2.42 190 2.42 161 2.43 165 2.43 115 2.43  18 2.43 146 2.43 124 2.43
                           244 2.44 264 2.44 234 2.45  30 2.46
  25  0.813  0.866  0.302-  39 2.43 196 2.43  77 2.43 211 2.43 126 2.43  87 2.43 194 2.44 164 2.44
                            99 2.44  95 2.44 147 2.44 179 2.44
  26  0.437  0.962  0.832- 127 2.36  41 2.36 132 2.37  16 2.43  38 2.43 135 2.43 223 2.43 220 2.43
                           119 2.44 130 2.46 173 2.46 272 2.47
  27  0.313  0.711  0.698- 278 2.43  48 2.43 205 2.43 131 2.43 188 2.43  86 2.44  33 2.44 138 2.44
                           206 2.44  43 2.44 156 2.44  94 2.45
  28  0.687  0.949  0.213- 164 2.43 271 2.43  15 2.43 102 2.43 122 2.43 201 2.43 193 2.43 126 2.43
                            83 2.43 174 2.45 187 2.46 184 2.46
  29  0.313  0.032  0.126- 139 2.36 108 2.36  64 2.36 233 2.43 158 2.43 247 2.43 195 2.43 181 2.43
                           128 2.44
  30  0.813  0.535  0.390-  99 2.42   4 2.43  85 2.43 264 2.43 234 2.43 192 2.43 240 2.43  79 2.43
                           214 2.43 146 2.45 244 2.46  24 2.46
  31  0.687  0.462  0.832- 133 2.36 248 2.36  80 2.37  60 2.43 223 2.43 155 2.43 220 2.43 145 2.43
                           252 2.43 140 2.45   2 2.45 167 2.46
  32  0.938  0.782  0.126-  44 2.36 224 2.36 187 2.36 111 2.43  10 2.43 181 2.43 195 2.43 117 2.44
                           129 2.44
  33  0.312  0.545  0.743- 109 2.43 206 2.43 268 2.43 226 2.43 246 2.43 267 2.43  94 2.43  55 2.43
                            27 2.44 278 2.44  97 2.44 205 2.44
  34  0.687  0.627  0.654- 285 2.43 156 2.43 216 2.43 230 2.43 188 2.43  92 2.43  11 2.43 274 2.44
                           154 2.44  52 2.44  42 2.44  53 2.44
  35  0.188  0.451  0.346-  70 2.42 105 2.43 234 2.43 280 2.43 149 2.43 258 2.43 250 2.43 104 2.43
                             4 2.44  58 2.44 180 2.44 254 2.45
  36  0.437  0.620  0.435- 191 2.42 161 2.43 215 2.43 176 2.43 121 2.43  88 2.43 251 2.43 162 2.44
                           244 2.44 141 2.44 105 2.45  85 2.46
  37  0.562  0.533  0.257- 193 2.43  21 2.43 160 2.43 134 2.43  72 2.43 116 2.43 168 2.43  51 2.43
                           164 2.43 237 2.43 231 2.43 211 2.44
  38  0.188  0.961  0.832- 182 2.35  41 2.36 262 2.36  16 2.42  26 2.43  82 2.43 218 2.43 135 2.44
                           114 2.44 245 2.46 277 2.47 272 2.47
  39  0.062  0.866  0.302-  25 2.43  58 2.43  87 2.43  63 2.43  95 2.43 196 2.43  12 2.43 103 2.44
                           273 2.44 147 2.44 280 2.44 101 2.45
  40  0.563  0.035  0.390-  62 2.42 179 2.43 214 2.43 152 2.43  14 2.43 141 2.43 283 2.43 192 2.43
                           232 2.43 284 2.45 162 2.45   3 2.46
  41  0.313  0.046  0.874-  26 2.36  38 2.36 135 2.36 182 2.43 127 2.43   1 2.43 143 2.43 132 2.43
                           262 2.44
  42  0.812  0.711  0.698- 188 2.43 270 2.43  86 2.43 198 2.43  11 2.44  91 2.44 276 2.44  34 2.44
                            92 2.44 239 2.44 255 2.44 274 2.45
  43  0.188  0.627  0.654- 242 2.42 156 2.42 151 2.43  50 2.43 138 2.43 238 2.43 266 2.43  19 2.44
                           205 2.44 274 2.44  27 2.44  86 2.45
  44  0.062  0.866  0.168-  32 2.36 195 2.36 181 2.36 187 2.42 224 2.43 263 2.43   6 2.43 139 2.43
                            64 2.44 199 2.47 271 2.47 269 2.48
  45  0.312  0.207  0.565- 136 2.42 189 2.43  20 2.43 210 2.43  46 2.43 177 2.43 235 2.43 113 2.44
                           259 2.44 107 2.44   9 2.46 275 2.46
  46  0.438  0.123  0.521-  96 2.38  47 2.38 178 2.39 235 2.41 259 2.42  45 2.43 136 2.43 189 2.43
                           207 2.43  90 2.43 287 2.43 118 2.44
  47  0.312  0.205  0.479- 189 2.38  46 2.38 136 2.39 215 2.41 169 2.42   3 2.42  57 2.43 178 2.43
                           221 2.43  96 2.43 281 2.43 191 2.44
  48  0.437  0.961  0.698- 131 2.43  27 2.43 206 2.43  84 2.43 260 2.43 243 2.43 188 2.43 138 2.44
                           270 2.44 208 2.44 265 2.44 230 2.45
  49  0.813  0.205  0.479-  90 2.38 100 2.38 241 2.39 146 2.41 183 2.42 125 2.43 221 2.43 222 2.43
                           284 2.43 170 2.43 159 2.43  96 2.44
  50  0.312  0.377  0.654- 151 2.42  43 2.43 249 2.43 265 2.43  19 2.43  84 2.43 156 2.43 275 2.43
                             9 2.44 216 2.44 205 2.44 278 2.45
  51  0.438  0.617  0.302-  77 2.43  21 2.43 211 2.43  72 2.43 254 2.43  37 2.43 103 2.43  58 2.43
                           160 2.44 149 2.44  75 2.44 104 2.45
  52  0.812  0.377  0.654-  53 2.42 216 2.43 153 2.43 144 2.43  59 2.43  19 2.43 274 2.43 282 2.43
                            34 2.44 150 2.45  11 2.45 276 2.45
  53  0.812  0.543  0.610- 274 2.42  52 2.42  76 2.43 285 2.43 153 2.43 154 2.43 144 2.43 238 2.43
                            34 2.44 166 2.45 288 2.45 253 2.46
  54  0.813  0.873  0.521- 125 2.38 222 2.38 165 2.39 166 2.41 219 2.42  71 2.43 204 2.43  81 2.43
                            23 2.43 100 2.43 287 2.44  90 2.44
  55  0.437  0.295  0.743- 226 2.43 268 2.43 142 2.43 278 2.43 208 2.43  33 2.43 260 2.43 167 2.43
                           267 2.44 130 2.44 243 2.44  84 2.44
  56  0.938  0.296  0.874- 252 2.36 114 2.36 145 2.36   5 2.43 143 2.43 262 2.43 186 2.43 248 2.44
[...]

 FORCES acting on ions
    electron-ion (+dipol)            ewald-force                    non-local-force                 convergence-correction
   -.127E+01 0.185E+01 -.393E+04   0.125E+01 -.185E+01 0.393E+04   0.897E-02 -.632E-02 0.118E+01   -.329E-02 0.139E-01 0.625E-01
   -.306E+01 0.120E+01 -.296E+04   0.298E+01 -.122E+01 0.296E+04   0.415E-01 0.199E-01 0.562E-01   0.353E-01 -.430E-02 -.810E-01
   -.670E+01 0.658E+01 0.709E+03   0.675E+01 -.660E+01 -.709E+03   -.172E-01 0.237E-01 0.221E+00   -.285E-01 -.832E-02 -.436E-01
   -.152E+02 -.103E+02 0.161E+04   0.152E+02 0.103E+02 -.161E+04   -.265E-01 0.504E-02 0.510E-01   0.260E-01 0.292E-01 0.102E-01
   -.617E+00 -.490E+01 -.393E+04   0.611E+00 0.490E+01 0.393E+04   -.106E-01 0.101E-01 0.122E+01   0.144E-01 -.351E-02 0.572E-01
   -.257E+01 0.119E+02 0.343E+04   0.257E+01 -.119E+02 -.343E+04   -.277E-02 -.317E-02 -.640E+00   -.727E-02 0.299E-02 0.147E+00
   0.325E+01 -.459E+01 -.393E+04   -.327E+01 0.456E+01 0.393E+04   0.687E-02 0.624E-02 0.120E+01   0.385E-02 0.154E-01 0.527E-01
   -.807E+01 -.398E+01 0.344E+04   0.805E+01 0.398E+01 -.344E+04   -.224E-01 -.590E-02 -.616E+00   0.320E-01 0.217E-01 0.144E+00
   0.129E+02 -.171E+01 -.120E+04   -.129E+02 0.173E+01 0.120E+04   0.452E-01 -.170E-01 0.103E-01   -.187E-02 -.106E-02 -.144E+00
   -.159E+01 0.785E+00 0.398E+04   0.159E+01 -.775E+00 -.398E+04   0.980E-02 -.798E-02 -.124E+01   -.547E-02 0.297E-02 0.105E+00
   -.121E+02 -.895E+00 -.207E+04   0.120E+02 0.857E+00 0.207E+04   0.235E-01 0.423E-01 0.573E-02   0.420E-01 -.810E-02 -.112E+00
   -.125E+01 0.585E+01 0.253E+04   0.126E+01 -.582E+01 -.253E+04   -.121E-01 -.547E-01 -.669E-01   0.637E-02 0.289E-01 0.137E+00
   0.253E+00 0.265E+01 0.398E+04   -.274E+00 -.266E+01 -.398E+04   0.143E-01 -.428E-03 -.119E+01   0.742E-02 0.611E-02 0.902E-01
   0.285E+01 -.242E+01 0.113E+04   -.287E+01 0.246E+01 -.113E+04   0.637E-02 0.658E-02 -.555E-01   0.196E-01 -.450E-01 0.108E-01
   -.150E+02 0.145E+02 0.299E+04   0.150E+02 -.145E+02 -.299E+04   0.342E-01 -.113E-01 -.386E-01   0.514E-03 0.279E-02 0.161E+00
   0.735E+01 -.125E+02 -.338E+04   -.731E+01 0.125E+02 0.338E+04   -.197E-01 0.133E-01 0.629E+00   -.212E-01 0.399E-02 0.215E-01
   0.103E+02 0.287E+01 0.299E+04   -.103E+02 -.287E+01 -.299E+04   -.347E-02 0.303E-02 -.583E-01   -.107E-01 -.104E-01 0.167E+00
   -.112E+02 -.223E+01 0.688E+03   0.112E+02 0.220E+01 -.688E+03   -.573E-01 0.736E-02 0.173E+00   0.314E-01 0.192E-01 -.599E-01
   0.227E+02 -.385E+01 -.164E+04   -.227E+02 0.388E+01 0.164E+04   0.408E-01 -.476E-01 -.534E-01   -.273E-01 0.921E-02 -.985E-01
   0.433E+01 -.293E+01 -.766E+03   -.426E+01 0.291E+01 0.766E+03   -.400E-01 0.329E-01 -.171E+00   -.238E-01 -.153E-01 -.129E+00
   0.370E+01 0.312E+01 0.206E+04   -.371E+01 -.313E+01 -.206E+04   0.266E-02 0.101E-01 -.231E-01   0.130E-02 0.170E-02 0.375E-01
   0.607E+01 -.121E+01 0.344E+04   -.605E+01 0.124E+01 -.344E+04   0.805E-02 0.679E-03 -.619E+00   -.246E-01 -.211E-01 0.137E+00
   0.456E+01 -.121E+02 -.296E+03   -.462E+01 0.122E+02 0.296E+03   0.568E-01 -.611E-01 -.212E+00   0.451E-03 0.712E-02 -.992E-01
   -.419E+01 0.140E+01 0.698E+03   0.418E+01 -.141E+01 -.698E+03   -.111E-01 -.465E-02 0.215E+00   0.218E-01 0.220E-01 -.579E-01
   -.131E+02 0.162E+00 0.207E+04   0.131E+02 -.115E+00 -.207E+04   0.112E-01 -.280E-01 -.101E-01   0.937E-02 -.175E-01 0.433E-01
   0.506E+01 0.493E+01 -.338E+04   -.501E+01 -.496E+01 0.338E+04   -.344E-02 0.190E-01 0.639E+00   -.412E-01 -.953E-02 0.232E-01
   -.132E+01 0.124E+02 -.208E+04   0.139E+01 -.124E+02 0.208E+04   -.768E-02 0.914E-02 -.165E-02   -.646E-01 -.204E-01 -.747E-01
   -.229E+02 0.246E+01 0.299E+04   0.230E+02 -.247E+01 -.300E+04   -.194E-01 0.382E-03 -.304E-01   -.347E-02 0.102E-01 0.146E+00
   0.350E+01 0.906E+00 0.398E+04   -.351E+01 -.912E+00 -.398E+04   0.721E-02 0.575E-03 -.122E+01   0.494E-02 0.838E-02 0.867E-01
   -.585E+01 -.852E+00 0.114E+04   0.582E+01 0.800E+00 -.114E+04   0.193E-01 0.115E-01 -.602E-01   0.139E-01 0.437E-01 -.303E-02
   -.668E+01 0.268E+01 -.339E+04   0.668E+01 -.272E+01 0.339E+04   0.729E-02 0.126E-01 0.567E+00   -.862E-02 0.121E-01 0.437E-01
   -.392E+00 -.323E+00 0.397E+04   0.387E+00 0.322E+00 -.397E+04   0.129E-01 0.665E-02 -.125E+01   -.780E-03 -.698E-02 0.103E+00
   0.103E+01 -.210E+01 -.251E+04   -.995E+00 0.209E+01 0.251E+04   0.238E-01 0.216E-01 0.823E-01   -.557E-01 -.234E-01 -.913E-01
   -.258E+02 -.675E+01 -.164E+04   0.257E+02 0.675E+01 0.164E+04   0.515E-02 0.403E-02 0.229E-01   0.627E-01 -.793E-02 -.137E+00
   0.836E+01 -.712E+01 0.161E+04   -.836E+01 0.713E+01 -.161E+04   -.765E-03 -.195E-01 0.391E-01   -.462E-02 0.989E-02 0.427E-01
   0.303E+01 -.112E+01 0.696E+03   -.301E+01 0.112E+01 -.697E+03   -.454E-02 -.159E-01 0.198E+00   -.217E-01 0.816E-02 -.538E-01
   0.365E+00 -.175E+01 0.253E+04   -.389E+00 0.177E+01 -.253E+04   -.992E-03 -.746E-02 -.441E-01   0.196E-01 -.669E-02 0.128E+00
   0.409E+01 0.115E+02 -.337E+04   -.409E+01 -.115E+02 0.337E+04   0.740E-02 -.790E-02 0.699E+00   -.552E-02 -.104E-01 -.258E-01
   -.108E+02 -.567E+01 0.206E+04   0.108E+02 0.567E+01 -.206E+04   -.700E-02 -.825E-03 0.768E-02   0.795E-02 0.276E-02 0.643E-01
   0.117E+02 -.315E+01 0.113E+04   -.117E+02 0.318E+01 -.113E+04   0.387E-02 0.948E-02 -.760E-01   -.402E-01 -.394E-01 0.121E-01
   0.186E+01 0.173E+01 -.393E+04   -.186E+01 -.170E+01 0.393E+04   -.179E-02 -.187E-01 0.122E+01   0.155E-02 -.151E-01 0.490E-01
   -.115E+02 0.364E+01 -.207E+04   0.114E+02 -.364E+01 0.207E+04   -.300E-01 0.882E-02 0.550E-01   0.735E-01 -.990E-02 -.124E+00
   0.263E+02 0.104E+02 -.165E+04   -.262E+02 -.103E+02 0.165E+04   0.608E-02 -.522E-01 -.618E-01   -.630E-01 -.983E-02 -.104E+00
   0.805E+01 0.402E+01 0.341E+04   -.803E+01 -.400E+01 -.341E+04   -.130E-01 -.186E-02 -.700E+00   -.713E-02 0.936E-03 0.134E+00
   0.954E+01 -.694E+01 -.773E+03   -.953E+01 0.698E+01 0.773E+03   0.479E-02 -.160E-01 -.227E+00   -.197E-01 -.212E-01 -.131E+00
   -.723E+01 0.134E+02 -.288E+03   0.726E+01 -.134E+02 0.289E+03   -.290E-01 0.648E-01 -.213E+00   -.731E-03 -.188E-01 -.105E+00
   0.435E+01 -.118E+02 0.227E+03   -.437E+01 0.119E+02 -.227E+03   0.328E-02 -.494E-01 0.241E+00   -.145E-02 -.629E-02 -.798E-01
   -.192E+02 0.440E+00 -.208E+04   0.192E+02 -.454E+00 0.208E+04   -.119E-01 0.118E-02 0.203E-02   -.481E-01 0.765E-02 -.728E-01
   0.894E+01 0.464E+01 0.233E+03   -.896E+01 -.464E+01 -.234E+03   0.297E-01 0.478E-02 0.264E+00   -.432E-02 -.177E-01 -.481E-01
   0.741E+01 -.239E+01 -.164E+04   -.736E+01 0.240E+01 0.164E+04   0.110E-01 -.141E-01 -.429E-01   -.571E-01 0.109E-01 -.935E-01
   0.104E+02 -.289E+01 0.206E+04   -.104E+02 0.290E+01 -.206E+04   -.721E-02 -.619E-02 -.160E-01   -.293E-02 0.209E-02 0.664E-01
   -.269E+02 -.587E+01 -.166E+04   0.269E+02 0.588E+01 0.166E+04   -.577E-01 -.193E-01 -.733E-01   0.555E-01 0.726E-02 -.125E+00
   -.113E+02 -.105E+02 -.120E+04   0.112E+02 0.105E+02 0.120E+04   -.200E-01 0.187E-01 0.415E-01   0.477E-01 0.323E-02 -.133E+00
   0.178E+02 0.996E+00 -.294E+03   -.179E+02 -.999E+00 0.294E+03   0.794E-01 -.168E-02 -.253E+00   -.249E-02 0.555E-02 -.920E-01
   -.452E+01 -.210E+01 -.251E+04   0.456E+01 0.208E+01 0.251E+04   0.305E-01 0.683E-02 0.613E-01   -.663E-01 -.167E-03 -.803E-01
   0.205E+01 -.726E+00 -.393E+04   -.206E+01 0.705E+00 0.393E+04   -.322E-02 0.761E-02 0.117E+01   0.664E-02 0.167E-01 0.683E-01
   -.371E+01 0.125E+00 0.226E+03   0.372E+01 -.119E+00 -.226E+03   -.265E-01 0.152E-01 0.238E+00   0.792E-02 -.148E-01 -.664E-01
   0.111E+02 -.784E+01 0.205E+04   -.111E+02 0.787E+01 -.205E+04   0.175E-01 -.154E-01 -.318E-01   -.202E-01 -.764E-02 0.705E-01
   -.242E+02 0.857E+01 -.166E+04   0.241E+02 -.855E+01 0.166E+04   0.281E-02 -.376E-01 -.935E-01   0.637E-01 0.494E-02 -.141E+00
   -.144E+02 -.341E+01 -.338E+04   0.144E+02 0.343E+01 0.338E+04   0.686E-02 -.221E-01 0.640E+00   0.103E-01 -.316E-02 0.292E-01
[...]
   0.114E+02 -.508E+01 -.105E+04   -.113E+02 0.508E+01 0.105E+04   -.466E-01 -.663E-02 0.985E-01   -.446E-01 0.533E-02 -.107E+00
   0.226E+01 -.675E+01 -.180E+04   -.229E+01 0.680E+01 0.180E+04   -.176E-01 -.512E-01 -.762E-02   0.398E-01 -.687E-02 -.981E-01
   -.321E+01 0.133E+02 -.260E+04   0.319E+01 -.134E+02 0.260E+04   -.107E-01 0.195E-01 0.443E-02   0.316E-01 0.231E-01 -.771E-01
   -.281E+01 0.966E-01 -.182E+04   0.284E+01 -.867E-01 0.182E+04   0.122E-01 -.387E-02 -.757E-02   -.389E-01 -.976E-02 -.664E-01
   -.450E+01 0.399E+01 -.259E+04   0.446E+01 -.401E+01 0.259E+04   0.161E-01 0.101E-01 0.270E-01   0.776E-02 0.705E-02 -.633E-01
   -.470E+01 -.423E+01 0.141E+04   0.470E+01 0.425E+01 -.141E+04   -.131E-01 -.102E-01 0.526E-01   0.787E-02 -.495E-02 0.391E-01
   -.195E+00 0.797E+00 0.195E+03   0.199E+00 -.825E+00 -.195E+03   -.626E-02 0.379E-02 0.210E+00   0.136E-01 0.152E-01 -.800E-01
   0.330E+01 -.463E+01 -.144E+04   -.332E+01 0.459E+01 0.144E+04   0.702E-02 0.271E-01 -.473E-01   0.136E-01 0.104E-02 -.981E-01
   0.235E+01 0.197E+00 0.100E+04   -.233E+01 -.173E+00 -.100E+04   0.400E-02 0.173E-02 -.496E-01   -.136E-01 -.186E-01 0.838E-03
   0.366E+01 0.238E+01 0.609E+03   -.366E+01 -.236E+01 -.609E+03   0.947E-02 0.863E-02 0.120E+00   -.991E-02 -.267E-01 -.120E-01
   -.986E+01 0.311E+01 -.105E+04   0.979E+01 -.311E+01 0.105E+04   0.182E-01 -.729E-02 0.636E-01   0.434E-01 0.169E-02 -.129E+00
   -.738E+01 -.170E+02 -.259E+04   0.735E+01 0.170E+02 0.259E+04   -.153E-01 -.230E-01 -.809E-03   0.454E-01 0.151E-01 -.727E-01
   -.239E+01 0.306E+00 -.255E+03   0.239E+01 -.305E+00 0.255E+03   -.126E-01 0.648E-02 -.194E+00   0.372E-02 -.197E-03 -.952E-01
   -.183E+01 0.260E+00 -.674E+03   0.181E+01 -.241E+00 0.674E+03   0.167E-01 -.254E-01 -.109E+00   -.109E-02 0.631E-02 -.871E-01
   0.101E-01 0.252E-01 0.288E+01   0.116E-11 0.726E-12 0.373E-10   -.359E-02 -.125E-01 -.951E-01   -.139E-01 -.574E-02 -.277E+01

 POSITION                                       TOTAL-FORCE (eV/Angst)
      4.25028      2.49174     39.32056        -0.008789      0.008379     -0.002273
      7.90284      3.18823     35.40628        -0.001411     -0.000129     -0.000756
      4.25363      1.02014     19.56068         0.002160     -0.003704     -0.000869
      9.11838      3.80352     15.57208        -0.005752      0.005254      0.001413
      0.60520      4.59029     39.32333        -0.002223     -0.000049     -0.009461
      9.12109      0.97492      7.58234        -0.006816      0.008232     -0.017958
      3.04245      4.59025     39.31991        -0.003723     -0.007864     -0.014376
      6.68880      5.18749      7.58531        -0.008840      0.010506     -0.015202
      4.25588      2.45754     27.44179        -0.003387      0.002294      0.001389
      7.90305      0.27277      5.68474         0.002829      0.005345      0.016448
      6.68721      3.87611     31.42211        -0.009230     -0.003504      0.005488
      0.60891      0.27981     11.57852        -0.002039      0.007095      0.010636
      9.11938      2.38649      5.68474         0.000676     -0.004215      0.008766
      7.90195      0.30050     17.55014         0.003268      0.002715      0.003428
      7.90201      1.68003      9.60052         0.004621     -0.009531     -0.000551
      3.03636      6.00190     37.42354         0.005041     -0.006766     -0.003871
      3.04135      1.68260      9.59929         0.004055     -0.002756     -0.000067
      0.60581      3.12085     19.56835        -0.002300     -0.003691      0.007333
      0.60880      3.16720     29.42635        -0.004094     -0.002445      0.006975
      1.82816      8.06280     25.43217        -0.000567      0.000664     -0.016239
      5.46954      3.09790     13.57361         0.002492      0.001660     -0.000496
      3.04165      3.08129      7.58510        -0.002324      0.011961     -0.013181
      6.69158      5.24454     23.45868        -0.008963      0.006890     -0.005496
      9.12402      5.22745     19.56125         0.000549      0.004378     -0.000605
      7.90237      7.30438     13.57673         0.004713      0.000905     -0.000740
      4.25031      8.10659     37.42601         0.002284     -0.019260      0.012535
      3.04070      5.97964     31.41998        -0.001922      0.001844      0.003393
      6.68413      7.99885      9.60112         0.008646     -0.001175      0.000612
      3.04082      0.27462      5.68706         0.001100      0.002615      0.017396
      7.90370      4.51370     17.55143         0.000459      0.003428     -0.001496
      6.68510      3.89485     37.41856         0.001321     -0.011212      0.010054
      9.11865      6.59318      5.68034         0.007390     -0.001384      0.015179
      3.03893      4.59095     33.41840         0.000440     -0.007952     -0.005769
      6.67968      5.28088     29.43614         0.004218     -0.004637      0.001531
      1.82698      3.80179     15.57339        -0.007181      0.003150     -0.002518
      4.25009      5.22721     19.55475        -0.001088     -0.002081      0.007364
      5.47283      4.49160     11.58652        -0.005784      0.007438      0.004412
      1.82273      8.10129     37.42561         0.001159     -0.019493      0.012164
      0.60503      7.30565     13.57054         0.001487      0.001511      0.000798
      5.47294      0.30091     17.55009         0.003237     -0.000357      0.002195
      3.04150      0.38384     39.32395         0.000866     -0.001673     -0.009635
      7.90156      5.98442     31.42436        -0.007706     -0.000735     -0.003169
      1.82896      5.27517     29.42482         0.008920     -0.006213     -0.007185
      0.60661      7.29135      7.57656        -0.005978      0.012697     -0.013438
      3.03756      1.74079     25.43294        -0.004279      0.004160      0.009003
      4.25576      1.03812     23.45980         0.000068     -0.026808      0.001843
      3.03929      1.72510     21.53384        -0.014407      0.006552     -0.001719
      4.24849      8.08972     31.42694        -0.003372     -0.004624     -0.004171
      7.90566      1.72730     21.53287         0.005439     -0.014229      0.005492
      3.03843      3.16919     29.42675         0.004558      0.000683      0.005007
      4.25723      5.20232     13.57299         0.007993      0.002702     -0.001605
      7.90067      3.17095     29.42358         0.003862     -0.005262     -0.008378
      7.90279      4.56821     27.44526         0.003290     -0.001756     -0.007769
      7.90806      7.34970     23.45963        -0.011958      0.000041     -0.013241
      4.25417      2.48307     33.41439         0.002313     -0.013158      0.001463
      9.12392      2.48547     39.32460        -0.001612      0.003279     -0.006661
      1.82444      8.04603     21.53299        -0.005253      0.006281      0.019225
      1.82265      5.20143     13.57319         0.002355      0.002073     -0.001588
      6.68130      1.06473     29.42054         0.004086     -0.011084      0.003052
      7.90167      5.99554     37.42335         0.008109     -0.004916      0.007654
[...]
      9.11715      5.27974     29.41515        -0.001885     -0.008200     -0.000956
      1.81843      2.45885     27.44657        -0.004132     -0.002903     -0.003000
      9.11841      3.87267     31.43257        -0.002874     -0.001439     -0.005660
      0.60388      7.40385     35.39540         0.000189      0.005491      0.001083
      4.25579      3.87860     31.42896         0.001655     -0.003745     -0.007209
      6.68532      1.08020     35.40094        -0.009350     -0.001539     -0.001274
      0.60866      5.90616     15.57458        -0.005505      0.004312     -0.000632
      1.82376      3.83473     21.53804         0.011313     -0.008418     -0.013388
      9.11756      1.06391     29.42723         0.004449     -0.010468     -0.004235
      3.04167      0.30104     17.54703         0.004145      0.007283     -0.000218
      6.68854      1.01873     19.55201        -0.001768      0.000190      0.004132
      6.68749      6.67186     27.44743        -0.002045      0.000148      0.007011
      9.11871      5.28422     35.39436        -0.002563     -0.002174     -0.005200
      5.47087      7.35063     23.45700        -0.013101      0.007618      0.007771
      9.12103      3.85499     25.43898        -0.003257     -0.000152     -0.009795
    total drift:                               -0.007450      0.006948      0.009145

  FREE ENERGIE OF THE ION-ELECTRON SYSTEM (eV)
  free  energy   TOTEN  =     -2330.10291587 eV

  energy  without entropy=    -2324.54777430  energy(sigma->0) =    -2327.32534509

 d Force = 0.7170890E-04[-0.101E-02, 0.115E-02]  d Energy = 0.2666123E-03-0.195E-03
 d Force =-0.4847969E+03[-0.485E+03,-0.485E+03]  d Ewald  =-0.4847969E+03-0.294E-04

 reached required accuracy - stopping structural energy minimisation