 vasp.5.4.4.18Apr17-6-g9f103f2a35 (build May 29 2019 08:40:53) complex
 executed on             LinuxPGI date 2021.11.22  02:27:48

 INCAR:
 POTCAR:    PAW_PBE Fe_GW 31Mar2010
 POTCAR:    PAW_PBE Mn_GW 31Mar2010

   TITEL  = PAW_PBE Fe_GW 31Mar2010
   POMASS =   55.847; ZVAL   =    8.000    mass and valenz
   ENMAX  =  321.007; ENMIN  =  240.755 eV

   TITEL  = PAW_PBE Mn_GW 31Mar2010
   POMASS =   54.938; ZVAL   =    7.000    mass and valenz
   ENMAX  =  278.466; ENMIN  =  208.850 eV

 Optimization of the real space projectors (new method)

 maximal supplied QI-value         = 16.25
 optimisation between [QCUT,QGAM] = [ 11.38, 22.75] = [ 36.24,144.96] Ry
 Optimized for a Real-space Cutoff    1.47 Angstroem

   l    n(q)    QCUT    max X(q) W(low)/X(q) W(high)/X(q)  e(spline)
   2      9    11.376   131.327    0.18E-03    0.15E-03    0.32E-06
   2      9    11.376   127.187    0.18E-03    0.15E-03    0.32E-06
   0     10    11.376    16.887    0.65E-04    0.39E-04    0.15E-06
   0     10    11.376     8.663    0.39E-04    0.30E-04    0.12E-06
   1     10    11.376     5.390    0.67E-04    0.60E-04    0.14E-06
   1     10    11.376     3.548    0.40E-04    0.37E-04    0.94E-07
   3      9    11.376     4.269    0.82E-04    0.22E-03    0.14E-06
 Optimization of the real space projectors (new method)

 maximal supplied QI-value         = 15.68
 optimisation between [QCUT,QGAM] = [ 11.45, 22.90] = [ 36.71,146.85] Ry
 Optimized for a Real-space Cutoff    1.52 Angstroem

   l    n(q)    QCUT    max X(q) W(low)/X(q) W(high)/X(q)  e(spline)
   2      9    11.450   123.144    0.15E-03    0.12E-04    0.31E-06
   2      9    11.450   117.938    0.15E-03    0.12E-04    0.31E-06
   0     10    11.450    19.684    0.63E-04    0.21E-04    0.22E-06
   0     10    11.450     9.378    0.37E-04    0.16E-04    0.17E-06
   1     10    11.450     5.531    0.25E-04    0.81E-04    0.11E-06
   1     10    11.450     3.850    0.15E-04    0.46E-04    0.77E-07
   3      9    11.450     4.123    0.90E-04    0.12E-03    0.18E-06
  PAW_PBE Fe_GW 31Mar2010               :
  PAW_PBE Mn_GW 31Mar2010               :

 POSCAR: FeMn_288_15
  positions in direct lattice
  velocities in cartesian coordinates
 exchange correlation table for  LEXCH =        8
   RHO(1)=    0.500       N(1)  =     2000
   RHO(2)=  100.500       N(2)  =     4000

 ion  position               nearest neighbor table
   1  0.562  0.705  0.698-  65 2.43 177 2.43 232 2.43  75 2.43  54 2.43 146 2.43 122 2.43 225 2.43
                           285 2.44  38 2.45 279 2.45 234 2.45
   2  0.812  0.872  0.654- 215 2.43 209 2.43 220 2.43 197 2.43  38 2.43 203 2.43 234 2.43 132 2.43
                           130 2.43 122 2.44 285 2.44  30 2.45
   3  0.437  0.623  0.302- 229 2.43  27 2.43  10 2.43 206 2.43 193 2.43  78 2.43 214 2.44 186 2.44
                           233 2.44 157 2.44 133 2.44 123 2.44
   4  0.938  0.622  0.521- 247 2.38 184 2.38 113 2.38 102 2.42  85 2.42  15 2.42 144 2.43  58 2.43
                            86 2.43  90 2.43 267 2.43 161 2.43
   5  0.312  0.537  0.873-  79 2.35 251 2.36 236 2.36 258 2.42 231 2.43  33 2.43 256 2.43   8 2.44
                           219 2.44
   6  0.687  0.288  0.742- 167 2.43 221 2.43 142 2.43  52 2.43 175 2.43  54 2.43 272 2.43 177 2.43
                           275 2.43   7 2.43 183 2.43  43 2.44
   7  0.687  0.121  0.787-  98 2.43  43 2.43 246 2.43 183 2.43 104 2.43 273 2.43  52 2.43   6 2.43
                           272 2.43 180 2.46  35 2.46 204 2.46
   8  0.563  0.537  0.874- 173 2.35 251 2.36  53 2.36  91 2.42  47 2.43 256 2.43 241 2.43   5 2.44
                           219 2.44
   9  0.062  0.205  0.831- 258 2.36 216 2.36 253 2.36  49 2.43  79 2.43  35 2.43  61 2.43  60 2.44
                           179 2.44  13 2.46 273 2.46 110 2.46
  10  0.312  0.373  0.302- 164 2.43 188 2.43 210 2.43 278 2.43 193 2.43   3 2.43 178 2.44  27 2.44
                           133 2.44 214 2.44 189 2.44  14 2.44
  11  0.188  0.621  0.787- 136 2.43 107 2.43 111 2.43 245 2.43  89 2.43 141 2.43  22 2.43  13 2.43
                            41 2.44  31 2.45 236 2.46  79 2.46
  12  0.438  0.122  0.654-  88 2.42 118 2.42 223 2.42 191 2.43 239 2.43 197 2.43  38 2.43 270 2.43
                           252 2.43 142 2.44 208 2.44 232 2.44
  13  0.063  0.371  0.787- 110 2.43 275 2.43 141 2.43 245 2.43  43 2.43 273 2.43 154 2.43  11 2.43
                            41 2.44   9 2.46  49 2.46  79 2.46
  14  0.187  0.456  0.346-  82 2.42 195 2.43 214 2.43 287 2.43 200 2.43  55 2.43 283 2.43 157 2.43
                           189 2.44 210 2.44  27 2.44  10 2.44
  15  0.937  0.455  0.565- 267 2.42   4 2.42 144 2.43  48 2.43 116 2.43  85 2.43 102 2.43 190 2.43
                            23 2.43  70 2.45 120 2.45  84 2.45
  16  0.937  0.788  0.874-  61 2.35  31 2.36 174 2.36 212 2.42 253 2.43 241 2.43  33 2.43  47 2.43
                           231 2.43
  17  0.188  0.122  0.435-  39 2.42 228 2.42 176 2.42 288 2.42 155 2.43 213 2.43 138 2.43 160 2.43
                           286 2.44 147 2.45 200 2.45 100 2.45
  18  0.562  0.873  0.435- 156 2.42  97 2.42  95 2.42 155 2.43  57 2.43 149 2.43 276 2.43  20 2.43
                           176 2.43 263 2.45 192 2.45  87 2.45
  19  0.188  0.122  0.521- 228 2.38 288 2.38  39 2.38  23 2.41 187 2.42  74 2.42 265 2.42 185 2.43
                           126 2.43  86 2.43 144 2.44 207 2.44
  20  0.688  0.122  0.435-  51 2.42 156 2.42 282 2.42  92 2.42  57 2.43 160 2.43  18 2.43 261 2.44
                           176 2.44 163 2.45  87 2.45 137 2.46
  21  0.312  0.706  0.213- 112 2.43  42 2.43  77 2.43 201 2.43 133 2.43 166 2.43 280 2.44  24 2.44
                           186 2.44 211 2.45  69 2.45 159 2.46
  22  0.188  0.788  0.742- 143 2.43 107 2.43  75 2.43  89 2.43 136 2.43  25 2.43  11 2.43 222 2.43
                            65 2.43 240 2.43 224 2.43  41 2.44
  23  0.063  0.205  0.565- 207 2.41  19 2.41 144 2.42  74 2.43 116 2.43  40 2.43 265 2.43 190 2.43
                            15 2.43  76 2.46  84 2.46 170 2.46
  24  0.563  0.706  0.213-  37 2.43 248 2.43  77 2.43 108 2.43 115 2.43  21 2.44 233 2.44 280 2.44
                           186 2.44 205 2.45  69 2.45  93 2.46
  25  0.063  0.038  0.742-  30 2.43 275 2.43 110 2.43 143 2.43 273 2.43 154 2.43  52 2.43  22 2.43
                           224 2.43 240 2.43 117 2.43 136 2.44
  26  0.687  0.123  0.302- 193 2.43 278 2.43 218 2.43 206 2.43 254 2.43 235 2.43 182 2.44 131 2.44
                           237 2.44  71 2.44 169 2.44 196 2.44
  27  0.187  0.623  0.302-  63 2.43 210 2.43  78 2.43   3 2.43 284 2.43 260 2.43  10 2.44 166 2.44
                           133 2.44  14 2.44 157 2.45 283 2.45
  28  0.562  0.040  0.126-  93 2.36 105 2.36 266 2.36  34 2.43 227 2.43 269 2.43  44 2.43 243 2.43
                           244 2.44
  29  0.812  0.372  0.654-  45 2.43  84 2.43  70 2.43 203 2.43 197 2.43 234 2.43 239 2.43  72 2.43
                           130 2.44 175 2.44  99 2.44  54 2.45
  30  0.938  0.955  0.698-  52 2.43 175 2.43  25 2.43 224 2.43 117 2.43 122 2.43 285 2.43 240 2.43
                           222 2.43 132 2.45   2 2.45 203 2.45
  31  0.062  0.704  0.831- 231 2.36  16 2.36  33 2.36  79 2.43  49 2.43 174 2.43 236 2.43  60 2.43
                            61 2.44  11 2.45 141 2.45 136 2.45
  32  0.187  0.123  0.168- 127 2.35 268 2.35 269 2.36  83 2.43 129 2.43 158 2.43 257 2.43 159 2.44
                           266 2.44  66 2.46 201 2.46 162 2.46
  33  0.188  0.788  0.874- 236 2.36  60 2.36  31 2.36 219 2.43 238 2.43 253 2.43   5 2.43  16 2.43
                           231 2.43
  34  0.687  0.289  0.126- 105 2.35 128 2.36 171 2.36 244 2.42  28 2.43 227 2.43 119 2.43 277 2.44
                           109 2.45
  35  0.813  0.205  0.831-  91 2.36 216 2.36 212 2.37  49 2.43 173 2.43   9 2.43  61 2.43 204 2.44
                           180 2.44  43 2.45 273 2.46   7 2.46
  36  0.937  0.289  0.390- 287 2.43 147 2.43 137 2.43 163 2.43 200 2.43 195 2.43 218 2.43  81 2.44
                            55 2.44 286 2.45 160 2.45  92 2.45
  37  0.687  0.457  0.213- 233 2.42  24 2.43  77 2.43 248 2.43 124 2.43  64 2.43 135 2.43  71 2.43
                            67 2.44 128 2.45 205 2.46 171 2.47
  38  0.563  0.871  0.654- 209 2.42 249 2.43  88 2.43   2 2.43 234 2.43 279 2.43  12 2.43 197 2.43
                           252 2.43 122 2.44 232 2.44   1 2.45
  39  0.312  0.206  0.479- 126 2.38  19 2.38 187 2.39 138 2.42  17 2.42 176 2.42  46 2.42 242 2.43
                           288 2.43 282 2.43 228 2.44  97 2.44
  40  0.938  0.955  0.565- 161 2.42  86 2.42 207 2.42 102 2.43  85 2.43 265 2.43  23 2.43 103 2.43
                           116 2.43 220 2.45 170 2.45 215 2.45
  41  0.062  0.538  0.742- 264 2.43  99 2.43 275 2.43 222 2.43 154 2.43 221 2.43 240 2.43  89 2.43
                           141 2.44  13 2.44  22 2.44  11 2.44
  42  0.063  0.706  0.213- 260 2.43  21 2.43 112 2.43  67 2.43 201 2.43 166 2.43 199 2.43 281 2.43
                           248 2.44 211 2.45 257 2.46 153 2.46
  43  0.812  0.371  0.787-   7 2.43 183 2.43 273 2.43 275 2.43  13 2.43 141 2.43 181 2.44   6 2.44
                           221 2.44  35 2.45  49 2.45 173 2.46
  44  0.438  0.790  0.126-  93 2.36 159 2.36  69 2.37 255 2.43 119 2.43 243 2.43  28 2.43 106 2.43
                           269 2.43
  45  0.687  0.289  0.610-  29 2.43 197 2.43 239 2.43  88 2.43 223 2.43 101 2.43 220 2.43  70 2.43
                            84 2.43 116 2.44  48 2.45 230 2.46
  46  0.188  0.456  0.479- 144 2.38 126 2.38  58 2.38 140 2.42 138 2.42 242 2.42  39 2.42 286 2.43
                           134 2.43 113 2.43 288 2.44 184 2.44
  47  0.813  0.538  0.874- 173 2.36  49 2.36 174 2.36   8 2.43  91 2.43 216 2.43 231 2.43 241 2.43
                            16 2.43
  48  0.688  0.455  0.565- 267 2.42 114 2.42  90 2.42  15 2.43 116 2.43  85 2.43 230 2.43 202 2.44
                            68 2.44  70 2.45 101 2.45  45 2.45
  49  0.938  0.454  0.831- 216 2.36 231 2.36  47 2.36  35 2.43   9 2.43  31 2.43  79 2.43 174 2.43
                           173 2.43  43 2.45 141 2.45  13 2.46
  50  0.937  0.956  0.346- 137 2.42 237 2.43 147 2.43 145 2.43 283 2.43 218 2.43 125 2.43 287 2.43
                           194 2.44 131 2.44 235 2.44  63 2.45
  51  0.813  0.206  0.479- 267 2.38  80 2.38 207 2.38  92 2.42  20 2.42 160 2.42 184 2.42 165 2.43
                           288 2.43 282 2.43  56 2.44 156 2.44
  52  0.812  0.038  0.742-  30 2.43 240 2.43 122 2.43 275 2.43  25 2.43   6 2.43 225 2.43 272 2.43
                           175 2.43   7 2.43 273 2.43 104 2.44
  53  0.563  0.705  0.831- 241 2.36   8 2.36 219 2.36 204 2.42 274 2.43 174 2.43 236 2.43 251 2.44
                           173 2.44  98 2.45 181 2.46 111 2.46
  54  0.688  0.455  0.698- 221 2.43   1 2.43 175 2.43 146 2.43 177 2.43 285 2.43  99 2.43   6 2.43
                           142 2.44 234 2.45 239 2.45  29 2.45
  55  0.937  0.457  0.346-  81 2.43 217 2.43 195 2.43 125 2.43  14 2.43 287 2.43 218 2.44 283 2.44
                           284 2.44  36 2.44 210 2.44 254 2.44
  56  0.937  0.955  0.479-  86 2.38 207 2.38 161 2.38 213 2.42  57 2.42 160 2.42 247 2.43 156 2.43
[...]

 FORCES acting on ions
    electron-ion (+dipol)            ewald-force                    non-local-force                 convergence-correction
   -.111E+02 0.592E+01 -.207E+04   0.112E+02 -.593E+01 0.207E+04   -.201E-01 0.497E-02 0.495E-01   0.940E-02 0.411E-02 -.877E-01
   0.244E+01 0.121E+02 -.165E+04   -.245E+01 -.121E+02 0.165E+04   0.296E-02 0.249E-01 -.788E-01   0.392E-02 -.306E-01 -.194E+00
   0.523E+01 -.229E+01 0.209E+04   -.529E+01 0.226E+01 -.209E+04   0.113E-01 0.131E-01 -.117E-01   0.458E-01 0.153E-01 -.935E-01
   0.773E+00 0.408E+01 -.221E+03   -.754E+00 -.408E+01 0.222E+03   -.889E-02 0.675E-02 -.226E+00   -.133E-01 -.404E-02 -.236E+00
   -.566E+01 -.412E+01 -.399E+04   0.564E+01 0.411E+01 0.399E+04   -.368E-01 -.140E-01 0.127E+01   0.642E-01 0.226E-01 0.165E+00
   -.182E+02 -.220E+01 -.254E+04   0.183E+02 0.221E+01 0.254E+04   -.320E-01 -.114E-01 0.337E-01   -.352E-03 0.950E-03 -.721E-01
   -.555E+00 0.109E+01 -.301E+04   0.560E+00 -.105E+01 0.301E+04   -.567E-02 -.945E-03 0.425E-01   0.518E-03 -.380E-01 -.777E-01
   0.566E+01 -.415E+01 -.399E+04   -.573E+01 0.414E+01 0.399E+04   0.380E-01 -.157E-01 0.127E+01   0.324E-01 0.234E-01 0.144E+00
   -.331E+01 0.334E+01 -.345E+04   0.336E+01 -.333E+01 0.345E+04   -.178E-01 0.208E-01 0.626E+00   -.353E-01 -.377E-01 -.309E-01
   0.361E+01 0.124E+02 0.208E+04   -.361E+01 -.124E+02 -.208E+04   -.141E-01 -.220E-01 0.143E-01   0.152E-01 0.114E-01 -.985E-01
   0.103E+01 0.105E+01 -.301E+04   -.104E+01 -.111E+01 0.301E+04   0.204E-02 0.198E-01 0.462E-01   0.702E-02 0.393E-01 -.135E+00
   -.180E+01 0.713E+00 -.163E+04   0.180E+01 -.708E+00 0.163E+04   -.173E-02 0.279E-02 -.628E-01   0.601E-02 -.587E-02 -.206E+00
   0.819E+01 0.461E+01 -.299E+04   -.819E+01 -.462E+01 0.299E+04   0.949E-02 -.177E-02 0.584E-01   -.174E-01 0.111E-01 -.130E+00
   0.238E+02 -.214E-01 0.165E+04   -.238E+02 -.183E-01 -.165E+04   0.146E-01 0.208E-01 0.216E-01   -.156E-02 0.175E-01 -.790E-01
   -.124E+01 0.189E+01 -.705E+03   0.126E+01 -.190E+01 0.706E+03   -.143E-01 0.207E-02 -.206E+00   -.750E-02 0.429E-02 -.316E+00
   -.110E+00 0.118E+01 -.399E+04   0.186E+00 -.123E+01 0.399E+04   -.184E-02 0.253E-01 0.120E+01   -.722E-01 0.266E-01 0.152E+00
   0.201E+02 -.221E+02 0.743E+03   -.202E+02 0.222E+02 -.744E+03   0.818E-01 -.647E-01 0.183E+00   -.598E-02 -.215E-01 -.651E-02
   -.100E+02 0.809E+01 0.750E+03   0.101E+02 -.812E+01 -.751E+03   -.182E-01 0.259E-01 0.211E+00   0.757E-02 0.293E-02 -.627E-02
   0.892E+01 -.823E+01 -.210E+03   -.893E+01 0.825E+01 0.210E+03   0.228E-01 -.177E-01 -.226E+00   -.101E-01 0.184E-03 -.234E+00
   0.280E+01 -.881E+01 0.739E+03   -.282E+01 0.884E+01 -.739E+03   0.472E-01 -.318E-01 0.185E+00   -.183E-01 0.271E-02 0.136E-01
   -.530E+01 -.198E+02 0.299E+04   0.532E+01 0.198E+02 -.299E+04   -.178E-01 -.448E-01 -.490E-01   -.614E-02 -.132E-01 0.104E+00
   0.508E+01 0.171E+01 -.255E+04   -.510E+01 -.171E+01 0.255E+04   0.250E-01 0.754E-02 0.419E-01   -.908E-02 -.120E-02 -.913E-01
   -.214E+00 -.946E+00 -.701E+03   0.229E+00 0.939E+00 0.701E+03   -.155E-02 -.748E-03 -.209E+00   -.134E-01 0.829E-02 -.330E+00
   0.602E+01 -.197E+02 0.299E+04   -.609E+01 0.198E+02 -.299E+04   0.212E-01 -.411E-01 -.424E-01   0.581E-01 -.992E-02 0.118E+00
   0.114E+02 -.117E+02 -.255E+04   -.114E+02 0.117E+02 0.255E+04   0.196E-01 -.142E-02 0.307E-01   -.112E-01 -.435E-01 -.791E-01
   0.830E+01 0.320E+01 0.209E+04   -.834E+01 -.317E+01 -.209E+04   0.304E-01 -.293E-04 -.315E-01   0.156E-01 -.220E-01 -.105E+00
   0.266E+02 -.470E+01 0.207E+04   -.267E+02 0.469E+01 -.207E+04   0.731E-01 -.264E-02 -.401E-01   -.174E-01 0.694E-02 -.103E+00
   -.248E+01 -.166E+01 0.396E+04   0.240E+01 0.168E+01 -.396E+04   0.149E-01 -.124E-01 -.124E+01   0.710E-01 -.420E-02 0.179E+00
   0.250E+01 -.824E+01 -.164E+04   -.251E+01 0.821E+01 0.164E+04   0.625E-02 0.656E-03 -.585E-01   0.629E-02 0.310E-01 -.214E+00
   0.964E+01 0.110E+02 -.209E+04   -.964E+01 -.110E+02 0.209E+04   0.100E-01 0.472E-01 0.410E-01   -.455E-02 -.435E-01 -.846E-01
   -.209E+01 -.282E+01 -.345E+04   0.213E+01 0.279E+01 0.345E+04   0.230E-03 -.142E-01 0.614E+00   -.390E-01 0.378E-01 -.371E-01
   0.492E+01 0.426E+01 0.343E+04   -.478E+01 -.429E+01 -.343E+04   -.446E-01 0.162E-01 -.647E+00   -.102E+00 0.132E-01 0.123E+00
   -.484E+01 -.276E+01 -.399E+04   0.483E+01 0.274E+01 0.399E+04   0.196E-02 -.237E-02 0.116E+01   0.566E-02 0.159E-01 0.163E+00
   -.199E+02 -.162E+01 0.396E+04   0.198E+02 0.165E+01 -.396E+04   -.778E-01 -.515E-01 -.114E+01   0.105E+00 0.253E-01 0.205E+00
   0.382E+01 0.389E+01 -.345E+04   -.378E+01 -.388E+01 0.345E+04   0.184E-01 0.291E-01 0.619E+00   -.582E-01 -.409E-01 -.212E-02
   -.170E+02 -.577E+01 0.119E+04   0.170E+02 0.577E+01 -.119E+04   -.368E-01 -.747E-02 -.706E-01   -.236E-01 0.265E-02 -.188E-01
   -.570E+01 0.234E+01 0.299E+04   0.564E+01 -.237E+01 -.299E+04   0.216E-02 0.211E-01 -.306E-01   0.517E-01 0.480E-02 0.908E-01
   0.337E+01 0.180E+02 -.164E+04   -.342E+01 -.179E+02 0.164E+04   0.349E-01 0.976E-02 -.502E-01   0.112E-01 -.286E-01 -.192E+00
   0.508E+01 -.217E+01 0.290E+03   -.511E+01 0.214E+01 -.290E+03   -.165E-01 0.418E-01 0.216E+00   0.431E-01 -.121E-01 -.980E-01
   0.716E-01 -.145E+01 -.706E+03   -.740E-01 0.146E+01 0.707E+03   0.112E-01 -.636E-02 -.190E+00   -.916E-02 -.447E-02 -.326E+00
   0.137E+02 0.107E+02 -.254E+04   -.137E+02 -.107E+02 0.254E+04   -.239E-02 0.170E-01 0.801E-02   -.950E-02 0.454E-01 -.104E+00
   0.952E+01 -.168E+02 0.299E+04   -.947E+01 0.168E+02 -.299E+04   0.212E-01 -.254E-01 -.348E-01   -.667E-01 -.105E-01 0.601E-01
   -.673E+01 0.397E+01 -.299E+04   0.677E+01 -.399E+01 0.299E+04   -.115E-01 0.165E-01 0.402E-01   -.306E-01 0.999E-02 -.985E-01
   0.220E+00 -.197E+01 0.396E+04   -.211E+00 0.201E+01 -.396E+04   0.354E-02 -.133E-01 -.124E+01   -.121E-01 -.243E-01 0.180E+00
   0.267E+01 -.346E+01 -.116E+04   -.269E+01 0.345E+01 0.116E+04   0.103E-01 -.129E-01 0.360E-01   0.114E-01 0.216E-01 -.321E+00
   0.193E+02 0.221E+02 0.302E+03   -.194E+02 -.221E+02 -.302E+03   0.880E-01 0.807E-01 0.276E+00   -.179E-01 0.134E-02 -.108E+00
   0.419E+00 -.200E+01 -.399E+04   -.344E+00 0.198E+01 0.399E+04   -.115E-01 -.154E-01 0.121E+01   -.618E-01 0.388E-01 0.152E+00
   0.293E+01 0.400E+00 -.707E+03   -.294E+01 -.413E+00 0.707E+03   0.394E-02 0.349E-02 -.179E+00   0.522E-02 0.102E-01 -.321E+00
   0.272E+00 0.904E+00 -.345E+04   -.206E+00 -.920E+00 0.345E+04   -.620E-03 -.735E-02 0.621E+00   -.645E-01 0.249E-01 -.276E-01
   -.207E+02 0.488E+01 0.165E+04   0.208E+02 -.485E+01 -.165E+04   -.472E-01 -.190E-01 0.397E-01   -.361E-01 -.173E-01 -.106E+00
   -.473E+01 -.370E+01 0.292E+03   0.476E+01 0.367E+01 -.292E+03   0.218E-01 0.271E-01 0.225E+00   -.458E-01 0.178E-02 -.103E+00
   -.736E+01 -.927E+01 -.254E+04   0.738E+01 0.935E+01 0.254E+04   -.578E-02 -.360E-01 0.126E-01   -.687E-02 -.409E-01 -.662E-01
   0.997E+01 -.129E+02 -.346E+04   -.100E+02 0.128E+02 0.345E+04   0.288E-01 0.175E-01 0.635E+00   0.359E-01 0.261E-01 -.445E-02
   -.940E+01 -.146E+02 -.208E+04   0.941E+01 0.146E+02 0.208E+04   -.155E-01 -.130E-01 0.225E-01   0.388E-02 0.360E-01 -.101E+00
   -.199E+02 -.825E+01 0.165E+04   0.200E+02 0.823E+01 -.165E+04   -.639E-01 -.397E-03 0.814E-01   -.257E-01 0.178E-01 -.957E-01
   -.586E+01 -.186E+02 0.289E+03   0.589E+01 0.187E+02 -.289E+03   -.208E-01 -.847E-01 0.252E+00   -.739E-02 -.108E-01 -.118E+00
   0.220E+01 0.111E+02 0.755E+03   -.224E+01 -.111E+02 -.756E+03   0.453E-01 -.221E-02 0.204E+00   -.645E-02 0.184E-02 -.757E-02
   0.128E+01 0.464E+01 -.224E+03   -.127E+01 -.466E+01 0.224E+03   0.116E-01 0.160E-01 -.225E+00   -.130E-01 0.243E-02 -.219E+00
   0.554E+01 -.240E+01 0.119E+04   -.558E+01 0.240E+01 -.119E+04   0.130E-01 -.740E-02 -.443E-01   0.237E-01 0.640E-02 -.202E-01
   -.172E+02 -.308E+01 -.345E+04   0.172E+02 0.313E+01 0.345E+04   -.199E-01 -.300E-01 0.620E+00   0.772E-02 -.213E-01 -.337E-01
[...]
   0.223E+01 -.200E+01 -.223E+04   -.223E+01 0.201E+01 0.223E+04   0.642E-02 -.400E-02 0.406E-01   -.116E-01 -.992E-03 -.742E-01
   -.447E+01 0.524E+01 0.660E+03   0.447E+01 -.527E+01 -.660E+03   0.145E-02 0.173E-01 0.173E+00   -.246E-02 0.750E-02 -.575E-02
   -.728E-01 0.315E+01 0.347E+04   0.674E-01 -.317E+01 -.347E+04   -.207E-02 0.461E-02 -.130E+01   0.743E-02 0.233E-01 0.199E+00
   0.464E+01 0.250E+01 0.183E+04   -.468E+01 -.250E+01 -.183E+04   0.687E-02 0.141E-01 0.306E-02   0.337E-01 -.122E-01 -.796E-01
   -.340E+01 -.301E+00 -.143E+04   0.340E+01 0.297E+00 0.143E+04   -.539E-02 -.872E-03 -.585E-01   0.564E-02 0.486E-02 -.171E+00
   -.568E-01 -.432E+00 0.262E+04   0.282E-01 0.442E+00 -.262E+04   -.501E-02 0.348E-02 -.117E-01   0.337E-01 -.123E-01 0.110E+00
   -.607E+00 -.180E+01 0.262E+04   0.641E+00 0.182E+01 -.262E+04   -.967E-04 -.180E-01 0.147E-01   -.335E-01 -.247E-02 0.576E-01
   -.185E+01 -.286E+01 0.252E+03   0.185E+01 0.287E+01 -.252E+03   -.789E-02 -.456E-02 0.218E+00   0.127E-01 -.803E-02 -.898E-01
   0.880E+01 0.504E+01 0.145E+04   -.879E+01 -.503E+01 -.145E+04   0.169E-01 -.791E-03 0.938E-01   -.205E-01 -.542E-02 -.804E-01
   -.110E+02 -.598E+01 0.181E+04   0.111E+02 0.596E+01 -.181E+04   -.181E-01 0.123E-02 -.460E-01   -.376E-01 0.162E-01 -.988E-01
   0.143E+01 0.301E+01 -.182E+04   -.144E+01 -.302E+01 0.182E+04   0.405E-02 0.711E-02 0.983E-02   0.562E-02 0.440E-02 -.817E-01
   0.317E+01 0.837E+01 0.651E+03   -.316E+01 -.842E+01 -.651E+03   0.399E-02 0.409E-01 0.109E+00   -.982E-02 0.242E-02 -.247E-02
   0.240E+00 -.221E+01 0.144E+04   -.227E+00 0.221E+01 -.144E+04   0.663E-02 -.262E-02 0.473E-01   -.202E-01 0.360E-02 -.776E-01
   0.152E+01 -.102E+02 0.264E+03   -.151E+01 0.102E+02 -.264E+03   0.404E-02 0.130E-03 0.211E+00   -.103E-01 -.103E-02 -.837E-01
   0.127E-01 -.188E-02 0.181E+02   0.365E-12 -.417E-12 0.887E-11   -.626E-02 0.220E-01 -.750E-01   -.197E-02 -.767E-03 -.180E+02

 POSITION                                       TOTAL-FORCE (eV/Angst)
      5.46853      5.93645     31.42485         0.000994      0.000848     -0.004785
      7.90230      7.34508     29.42351         0.000320      0.000151     -0.000757
      4.25520      5.24630     13.58090         0.001200     -0.001309      0.002141
      9.12024      5.24113     23.46617        -0.002868     -0.001102      0.003870
      3.03399      4.52586     39.30658        -0.001976     -0.000084     -0.003802
      6.68478      2.42600     33.40925         0.000630     -0.000458     -0.004686
      6.68629      1.02116     35.39720        -0.000517      0.000617     -0.002614
      5.47679      4.52550     39.30760        -0.000323     -0.000584     -0.005319
      0.60740      1.72629     37.41313        -0.000563      0.000445     -0.001438
      3.03867      3.13897     13.57586         0.000124     -0.000749      0.002799
      1.82483      5.23524     35.39841        -0.000259      0.000680      0.000762
      4.25584      1.02361     29.42205         0.000161      0.001462     -0.000834
      0.60834      3.12717     35.39646        -0.000654      0.000994     -0.001002
      1.82309      3.84385     15.57552         0.000803     -0.001385     -0.000487
      9.11690      3.83545     25.43583        -0.000540      0.000998      0.003469
      9.11860      6.63796     39.30973         0.001462     -0.003109     -0.006739
      1.82652      1.02858     19.56856        -0.000447      0.000425      0.000270
      5.47008      7.35181     19.56576         0.000327      0.000725     -0.000366
      1.82888      1.02710     23.46402        -0.000687      0.002001      0.001951
      6.69046      1.03168     19.56824         0.000663     -0.000327     -0.000344
      3.03812      5.95096      9.59875        -0.001356     -0.000959      0.003019
      1.82613      6.64044     33.41206        -0.000136      0.001773     -0.003186
      0.60818      1.72831     25.42427        -0.000326      0.000124      0.002358
      5.47332      5.95086      9.59980         0.001615     -0.001150      0.004743
      0.60842      0.32284     33.41094        -0.000718      0.001544     -0.005497
      6.68505      1.03720     13.58586         0.001301     -0.000615      0.000576
      1.82267      5.24939     13.57613         0.000955     -0.000809      0.002359
      5.47038      0.33483      5.68344        -0.002023     -0.000073     -0.001401
      7.90274      3.12939     29.42149        -0.000405      0.000561     -0.002356
      9.11916      8.04697     31.42629        -0.000672      0.001006     -0.002794
      0.60739      5.93110     37.41124        -0.000565     -0.000840     -0.000985
      1.82006      1.03980      7.57826         0.000188      0.000530      0.000007
      1.82480      6.63706     39.31069        -0.000776     -0.002375     -0.003856
      6.67967      2.43804      5.68956        -0.001460      0.002146     -0.000896
      7.90352      1.72691     37.41212         0.000372      0.001028     -0.002134
      9.11820      2.43207     17.56046         0.000117     -0.001592     -0.000536
      6.68120      3.84764      9.60512         0.002068     -0.000794      0.003908
      5.47310      7.34013     29.42229         0.000149      0.001469     -0.002136
      3.03740      1.73773     21.53617        -0.001565      0.001572      0.001178
      9.11920      8.04592     25.43948        -0.000385      0.000202      0.003348
      0.60666      4.53176     33.40707        -0.001077     -0.000483     -0.003530
      0.61093      5.94687      9.60110        -0.000201     -0.001337      0.003985
      7.90228      3.12478     35.39942        -0.000449      0.000987     -0.001883
      4.25571      6.65360      5.68274        -0.000249     -0.001772     -0.001502
      6.68611      2.43039     27.44318        -0.000030      0.000837      0.003353
      1.82909      3.84008     21.53810         0.000498     -0.001109      0.000937
      7.90363      4.52936     39.31260         0.001431     -0.000454     -0.006153
      6.69030      3.83463     25.43306         0.000175      0.000342      0.004001
      9.11890      3.82797     37.41146         0.000319      0.001722     -0.000468
      9.11531      8.05428     15.57508        -0.000074      0.000710      0.000105
      7.90566      1.73737     21.53607         0.001274      0.001660      0.000581
      7.90297      0.32066     33.40847        -0.000009      0.001355     -0.004825
      5.47244      5.94133     37.41467         0.000568     -0.000569     -0.002495
      6.68768      3.83344     31.42435         0.001801     -0.000205     -0.003399
      9.11751      3.84578     15.57284        -0.000469     -0.001625      0.000247
      9.11765      8.04706     21.54180         0.000560     -0.002014      0.001639
      7.90039      7.35300     19.57192         0.000882     -0.000270      0.001063
      1.82325      5.24186     23.46484         0.003486     -0.002169      0.002907
      4.25677      2.43715     17.55833         0.000330     -0.000772     -0.000130
      1.82256      8.03918     37.41108        -0.000451     -0.001599     -0.002020
[...]
      4.25621      8.04048     37.44117        -0.001513     -0.001483     -0.003101
      9.11856      2.42679     33.41266        -0.000768      0.000459     -0.005361
      6.68767      5.24677     19.57071        -0.000077     -0.001797      0.000812
      9.11818      2.44855      5.69696        -0.000026      0.000600     -0.003272
      4.25580      1.03551     13.57714         0.000453     -0.000616      0.001320
      4.25515      5.23490     29.41910         0.000382      0.000367     -0.001476
      4.25457      8.06030      9.60939         0.000089      0.000928      0.004226
      9.11844      8.05330      9.61168         0.000042     -0.000020      0.005827
      5.47074      1.73153     21.54338        -0.000688      0.001244     -0.001369
      0.61252      5.95381     15.58643         0.000618     -0.000332     -0.000316
      9.11602      5.24454     13.57562        -0.001163     -0.001229      0.001290
      7.90367      5.93978     31.42417         0.000833      0.001310     -0.003635
      0.60754      3.13887     19.56197        -0.000350     -0.000454     -0.001707
      0.60817      1.73834     15.57976        -0.000579     -0.000893     -0.000667
      0.60799      1.73111     21.54400         0.000979     -0.000510      0.003028
    total drift:                                0.004457      0.019306      0.016641

  FREE ENERGIE OF THE ION-ELECTRON SYSTEM (eV)
  free  energy   TOTEN  =     -2325.87130814 eV

  energy  without entropy=    -2320.31740247  energy(sigma->0) =    -2323.09435530

 d Force = 0.3411521E-06[ 0.265E-06, 0.417E-06]  d Energy = 0.3022002E-04-0.299E-04
 d Force = 0.6621369E+00[ 0.662E+00, 0.662E+00]  d Ewald  = 0.6621369E+00 0.657E-09

 reached required accuracy - stopping structural energy minimisation