 vasp.5.4.4.18Apr17-6-g9f103f2a35 (build Sep 27 2018 12:46:37) complex + VL-xray
 _
 executed on      LLNL_Quartz_ifc date 2021.09.26  22:21:35

 INCAR:
 POTCAR:    PAW_PBE Fe_GW 31Mar2010
 POTCAR:    PAW_PBE Mn_GW 31Mar2010

   TITEL  = PAW_PBE Fe_GW 31Mar2010
   POMASS =   55.847; ZVAL   =    8.000    mass and valenz
   ENMAX  =  321.007; ENMIN  =  240.755 eV

   TITEL  = PAW_PBE Mn_GW 31Mar2010
   POMASS =   54.938; ZVAL   =    7.000    mass and valenz
   ENMAX  =  278.466; ENMIN  =  208.850 eV

 Optimization of the real space projectors (new method)

 maximal supplied QI-value         = 16.25
 optimisation between [QCUT,QGAM] = [ 10.73, 21.61] = [ 32.22,130.83] Ry
 Optimized for a Real-space Cutoff    1.51 Angstroem

   l    n(q)    QCUT    max X(q) W(low)/X(q) W(high)/X(q)  e(spline)
   2      9    10.726   131.327    0.20E-03    0.12E-03    0.54E-06
   2      9    10.726   127.187    0.20E-03    0.12E-03    0.54E-06
   0     10    10.726    16.887    0.76E-04    0.35E-04    0.77E-07
   0     10    10.726     8.663    0.47E-04    0.27E-04    0.61E-07
   1      9    10.726     5.390    0.15E-04    0.59E-04    0.17E-06
   1      9    10.726     3.548    0.94E-05    0.35E-04    0.11E-06
   3      8    10.726     4.269    0.21E-03    0.19E-03    0.11E-06
 Optimization of the real space projectors (new method)

 maximal supplied QI-value         = 15.68
 optimisation between [QCUT,QGAM] = [ 10.82, 21.64] = [ 32.80,131.19] Ry
 Optimized for a Real-space Cutoff    1.55 Angstroem

   l    n(q)    QCUT    max X(q) W(low)/X(q) W(high)/X(q)  e(spline)
   2      9    10.822   123.144    0.95E-04    0.16E-03    0.25E-06
   2      9    10.822   117.938    0.95E-04    0.16E-03    0.25E-06
   0     10    10.822    19.684    0.74E-04    0.13E-04    0.93E-07
   0     10    10.822     9.378    0.45E-04    0.10E-04    0.71E-07
   1     10    10.822     5.531    0.52E-04    0.29E-04    0.16E-06
   1     10    10.822     3.850    0.30E-04    0.16E-04    0.10E-06
   3      9    10.822     4.123    0.87E-04    0.22E-03    0.15E-06
  PAW_PBE Fe_GW 31Mar2010               :
  PAW_PBE Mn_GW 31Mar2010               :

  positions in direct lattice
  velocities in cartesian coordinates
 exchange correlation table for  LEXCH =        8
   RHO(1)=    0.500       N(1)  =     2000
   RHO(2)=  100.500       N(2)  =     4000

 VTST: version 3.1, (03/28/14)

 CHAIN: initializing optimizer

 OPT: Using VASP Conjugate-Gradient optimizer
 CHAIN: Read ICHAIN            0

  positions in direct lattice
  velocities in cartesian coordinates

 ion  position               nearest neighbor table
   1  0.062  0.031  0.124- 125 2.34  60 2.37  83 2.37  44 2.40  26 2.41 202 2.42 256 2.43 111 2.47
                           155 2.49
   2  0.317  0.875  0.655-  96 2.40 148 2.41  38 2.42  89 2.43 204 2.43  40 2.43 121 2.43 196 2.43
                           153 2.43 154 2.46  15 2.48 173 2.49
   3  0.185  0.121  0.788-   9 2.41 197 2.42   7 2.43 149 2.43  49 2.44 224 2.44 254 2.44 138 2.44
                            11 2.45 239 2.46 259 2.47  39 2.52
   4  0.442  0.288  0.389- 219 2.40 206 2.42  84 2.43 222 2.43  16 2.43  67 2.43 248 2.43 165 2.44
                           251 2.45  86 2.47 201 2.48 113 2.50
   5  0.318  0.712  0.833- 150 2.36 268 2.41 241 2.42 184 2.42 224 2.42  18 2.42 110 2.43  74 2.43
                           181 2.43   7 2.44 134 2.45 278 2.53
   6  0.818  0.214  0.833- 280 2.31  14 2.40 191 2.41  82 2.42  36 2.42 259 2.42  17 2.43  57 2.44
                           149 2.45 143 2.45  88 2.45 188 2.53
   7  0.191  0.963  0.833- 282 2.34 245 2.34 268 2.37 134 2.41  17 2.42  39 2.43   3 2.43 259 2.44
                             5 2.44 110 2.45 224 2.47 197 2.51
   8  0.562  0.207  0.565- 247 2.42 271 2.42 228 2.43  95 2.43  56 2.43  70 2.43  34 2.44  93 2.44
                           119 2.44 147 2.45 115 2.49 260 2.49
   9  0.066  0.040  0.744- 173 2.41   3 2.41 239 2.43  46 2.43 262 2.43 151 2.43 187 2.43 197 2.44
                            11 2.44  37 2.45 225 2.46 149 2.47
  10  0.811  0.871  0.521- 234 2.37  75 2.38 236 2.38  32 2.42  77 2.43 203 2.43 286 2.43  34 2.43
                           195 2.43  27 2.43  95 2.44 129 2.44
  11  0.191  0.291  0.744- 138 2.40  71 2.42  63 2.42 288 2.42 211 2.43 239 2.43   9 2.44 187 2.44
                             3 2.45 254 2.45 246 2.45  37 2.47
  12  0.934  0.452  0.345- 220 2.39 123 2.40  13 2.42  47 2.43 207 2.43 216 2.43 116 2.43  48 2.43
                            73 2.43 273 2.48 178 2.49 226 2.49
  13  0.941  0.287  0.389-  47 2.39 279 2.41  12 2.42 124 2.43  84 2.43 248 2.43 123 2.44 273 2.45
                           207 2.46 218 2.47 158 2.49  80 2.50
  14  0.813  0.040  0.875-  88 2.34  17 2.35 281 2.39   6 2.40  29 2.40 161 2.43 282 2.46 280 2.47
                           191 2.50
  15  0.184  0.788  0.611- 196 2.40 153 2.41 142 2.43 148 2.43 136 2.43 126 2.43  96 2.43  41 2.43
                            65 2.46   2 2.48 162 2.49  90 2.49
  16  0.566  0.038  0.389-  25 2.40 219 2.42  84 2.43   4 2.43 264 2.43 165 2.43  45 2.43 279 2.44
                           257 2.45 172 2.47  69 2.48 201 2.50
  17  0.942  0.963  0.834- 282 2.32  14 2.35 281 2.35 134 2.41   7 2.42 253 2.43   6 2.43 259 2.44
                            88 2.44 149 2.44 197 2.46  55 2.53
  18  0.314  0.539  0.876- 181 2.35 255 2.36  74 2.38 120 2.40   5 2.42  64 2.43 266 2.43 150 2.47
                           268 2.49
  19  0.690  0.290  0.744-  57 2.41 233 2.41 187 2.43 267 2.43  87 2.43 151 2.43 270 2.43  71 2.44
                            76 2.45 188 2.45 106 2.46  53 2.46
  20  0.182  0.614  0.167- 176 2.35  91 2.39  83 2.41 189 2.42 108 2.42 104 2.43  51 2.43 174 2.43
                           277 2.43 250 2.44  60 2.45 276 2.54
  21  0.812  0.206  0.479- 177 2.38 286 2.38  34 2.38  75 2.43 237 2.43 199 2.43 269 2.43 236 2.44
                           158 2.44 223 2.44  80 2.44 257 2.44
  22  0.809  0.538  0.611- 227 2.40  35 2.41 136 2.43 126 2.43 147 2.43 100 2.43 128 2.43 180 2.44
                           228 2.46 240 2.47  42 2.49  32 2.49
  23  0.312  0.870  0.434-  99 2.42 160 2.43 238 2.43 272 2.43 201 2.43 285 2.43  69 2.43 105 2.44
                            94 2.44 287 2.45 165 2.48 264 2.50
  24  0.809  0.038  0.256- 109 2.39  92 2.41  72 2.42 118 2.43  52 2.43 221 2.43 185 2.43 127 2.44
                            58 2.44 167 2.45 212 2.48 135 2.49
  25  0.684  0.952  0.345- 210 2.38  16 2.40 164 2.42  45 2.42  73 2.42 172 2.43 194 2.44 219 2.44
                           207 2.44 109 2.48  72 2.48 279 2.50
  26  0.931  0.115  0.167- 202 2.35 212 2.41 155 2.41   1 2.41 166 2.42 167 2.42  60 2.42 102 2.43
                            51 2.44 284 2.45 125 2.45  50 2.50
  27  0.062  0.871  0.521- 236 2.38 157 2.38  94 2.38  65 2.42 203 2.43  68 2.43 144 2.43 286 2.43
                            10 2.43 140 2.43 129 2.44 162 2.44
  28  0.559  0.538  0.256- 101 2.39 139 2.41 265 2.42  58 2.42 171 2.43  81 2.43 275 2.43 118 2.44
                           137 2.44 243 2.44 261 2.46 130 2.49
  29  0.684  0.796  0.875- 241 2.34 161 2.36  88 2.36  14 2.40 253 2.41 150 2.41 281 2.46  64 2.46
                           231 2.51
  30  0.556  0.366  0.167- 117 2.33 283 2.34 145 2.38  97 2.41 174 2.41 284 2.42 108 2.43 139 2.44
                           103 2.45 166 2.45 182 2.45 261 2.53
  31  0.440  0.791  0.744-  33 2.41 133 2.42 262 2.42 239 2.43 288 2.43  43 2.43 270 2.44 267 2.44
                           224 2.44  38 2.45 184 2.45 154 2.47
  32  0.812  0.707  0.565-  10 2.42 228 2.43 186 2.43  95 2.43  42 2.43  65 2.43 203 2.43 129 2.44
                           195 2.44 136 2.46 180 2.49  22 2.49
  33  0.560  0.873  0.788-  31 2.41  49 2.41 224 2.42 188 2.42 241 2.42 110 2.43  55 2.44  66 2.44
                           184 2.45 267 2.45  43 2.46  88 2.50
  34  0.687  0.121  0.521-  75 2.37 237 2.38  21 2.38  95 2.42  77 2.43 286 2.43 119 2.43  10 2.43
                           247 2.43 177 2.43 271 2.44   8 2.44
  35  0.816  0.375  0.655- 100 2.40  22 2.41 152 2.42  78 2.43 227 2.43 122 2.43 209 2.43 198 2.43
                           240 2.43 233 2.46 147 2.48  76 2.48
  36  0.941  0.463  0.834- 266 2.33 280 2.34 231 2.35   6 2.42 259 2.43  82 2.43 181 2.43 253 2.44
                           134 2.45 132 2.46 254 2.47  57 2.52
  37  0.060  0.208  0.700- 187 2.42 122 2.42 173 2.43 225 2.43 233 2.43 246 2.43  63 2.43 152 2.43
                             9 2.45 198 2.45  11 2.47 121 2.48
  38  0.435  0.958  0.700- 239 2.41   2 2.42  63 2.43  53 2.43 173 2.43  54 2.43 154 2.43 133 2.44
                            31 2.45 204 2.45 267 2.47  89 2.48
  39  0.317  0.212  0.833- 255 2.36 120 2.38 245 2.39 143 2.43   7 2.43 259 2.43  74 2.44 110 2.44
                            49 2.44 138 2.44 181 2.44   3 2.52
  40  0.441  0.625  0.655- 128 2.40  96 2.41 133 2.42  89 2.43 153 2.43  78 2.43 227 2.43   2 2.43
                            85 2.43 193 2.45  41 2.47 154 2.48
  41  0.309  0.538  0.611- 153 2.40  85 2.41 128 2.43  96 2.43  61 2.43 115 2.43 126 2.43  15 2.43
                            59 2.46  40 2.47  70 2.49  90 2.49
  42  0.937  0.457  0.566- 203 2.42  65 2.43 228 2.43  62 2.43  32 2.43 107 2.43 271 2.43  59 2.44
                           177 2.44 126 2.46  22 2.49 100 2.49
  43  0.690  0.791  0.744-  55 2.41 141 2.42 267 2.42 270 2.43 151 2.43  31 2.43  46 2.44  87 2.44
                            54 2.44  66 2.45  33 2.46 133 2.47
  44  0.934  0.788  0.125-  60 2.33 202 2.36 102 2.37   1 2.40 104 2.41 163 2.43  83 2.45 205 2.47
                           176 2.50
  45  0.692  0.788  0.389-  73 2.39  25 2.42 190 2.43 123 2.43  16 2.43 222 2.43 264 2.44 279 2.44
                           235 2.45 164 2.47 232 2.48  69 2.50
  46  0.941  0.790  0.744- 197 2.41 274 2.42 132 2.42   9 2.43  87 2.43 262 2.43 211 2.43 151 2.43
                            43 2.44 225 2.46  55 2.46 141 2.47
  47  0.059  0.203  0.345- 135 2.39  13 2.39 124 2.42  12 2.43 207 2.43 116 2.43  86 2.43 258 2.43
                           194 2.44 248 2.47 226 2.48 215 2.49
  48  0.683  0.453  0.345- 222 2.39 171 2.39  84 2.42 219 2.43 206 2.43 164 2.43 207 2.43  12 2.43
                            73 2.43 123 2.47 130 2.49 220 2.50
  49  0.435  0.121  0.789- 110 2.41 188 2.41  33 2.41 224 2.42 239 2.42   3 2.44 106 2.44  39 2.44
                           138 2.44  71 2.47 267 2.48 143 2.49
  50  0.065  0.205  0.212- 112 2.42 146 2.42 212 2.43  51 2.43 189 2.43 167 2.43 175 2.43 249 2.44
                           185 2.45 125 2.46 127 2.48  26 2.50
  51  0.055  0.366  0.167- 155 2.34 176 2.37 111 2.38 104 2.40  20 2.43  50 2.43 284 2.43  26 2.44
                           175 2.44 108 2.45 125 2.47 189 2.52
  52  0.934  0.789  0.256- 213 2.39  72 2.40  24 2.43 178 2.43 118 2.43 185 2.43  81 2.43 212 2.44
                           200 2.44 168 2.44 250 2.47 214 2.51
  53  0.560  0.208  0.700-  71 2.42 204 2.42  54 2.43  63 2.43  38 2.43  76 2.43 193 2.43 233 2.43
                           267 2.44  78 2.46  19 2.46 209 2.48
  54  0.685  0.958  0.700- 267 2.41  89 2.43  53 2.43 233 2.43  38 2.43 225 2.43 133 2.43 141 2.44
[...]
                           119 2.43 252 2.43 140 2.43 247 2.43
 184  0.437  0.623  0.788-  66 2.42 288 2.42 224 2.42  33 2.43 106 2.43  31 2.44 278 2.44 138 2.44
                           270 2.45  74 2.46   5 2.46 241 2.49
 185  0.061  0.038  0.256- 212 2.41 135 2.42  24 2.43 127 2.43 112 2.43  52 2.43 200 2.43  50 2.43
                           179 2.44 214 2.44 146 2.44 215 2.47
 186  0.562  0.706  0.566-  77 2.42 195 2.43 252 2.43  90 2.43  56 2.43  70 2.43  32 2.43 228 2.43
                            95 2.43 180 2.45 128 2.46  96 2.46
 187  0.939  0.290  0.744- 254 2.42 151 2.43   9 2.43  37 2.43 149 2.43  11 2.43  19 2.43 211 2.43
                            87 2.43  57 2.44 152 2.45 233 2.45
 188  0.686  0.124  0.788- 267 2.41 106 2.42  49 2.43  19 2.43  57 2.43  33 2.43  55 2.43 149 2.43
                           151 2.44 143 2.46  88 2.47   6 2.52
 189  0.188  0.455  0.212- 175 2.42 250 2.42 275 2.42  50 2.43 276 2.44 249 2.44 112 2.44 168 2.44
                           139 2.45  20 2.45 108 2.47  51 2.51
 190  0.939  0.787  0.389-  45 2.42 123 2.43 216 2.43 273 2.43 279 2.43 194 2.44 287 2.44 124 2.44
                           285 2.45  73 2.46 131 2.46 235 2.47
 191  0.687  0.293  0.875- 143 2.35  82 2.36   6 2.37 161 2.42 280 2.43 255 2.43  14 2.43  64 2.43
                           231 2.44
 192  0.557  0.866  0.167- 170 2.34 163 2.35 114 2.36 182 2.41 174 2.43 277 2.43 102 2.44 166 2.44
                            97 2.44 243 2.45 229 2.46  92 2.52
 193  0.437  0.457  0.700- 288 2.43 133 2.43  63 2.43  76 2.43  53 2.43 154 2.43 246 2.43  71 2.44
                            85 2.44  40 2.45 270 2.46  78 2.47
 194  0.937  0.954  0.345- 279 2.43 258 2.43 216 2.43  72 2.43 207 2.43  47 2.43  73 2.44  25 2.44
                           190 2.44 124 2.46 214 2.46 135 2.47
 195  0.686  0.623  0.522- 169 2.40 234 2.41 199 2.42  77 2.42 228 2.43 186 2.43  10 2.43 252 2.43
                           247 2.43  32 2.43 177 2.43 203 2.43
 196  0.064  0.874  0.655- 240 2.43  15 2.43 153 2.43   2 2.43 122 2.43  79 2.43 121 2.43 142 2.44
                           173 2.44 274 2.45 225 2.46 136 2.46
 197  0.061  0.874  0.788-  46 2.42 132 2.43   3 2.43 278 2.43  55 2.43   9 2.43 149 2.44 224 2.44
                           262 2.44 134 2.45  17 2.47   7 2.50
 198  0.064  0.374  0.655-  61 2.43  85 2.43  35 2.43 121 2.43 122 2.43 126 2.43 153 2.43 240 2.43
                           246 2.44  37 2.45 152 2.46 100 2.46
 199  0.687  0.454  0.478- 177 2.41 247 2.41 195 2.42 251 2.42 232 2.42  21 2.42  80 2.42 237 2.43
                           269 2.43 156 2.43 169 2.43 234 2.44
 200  0.186  0.789  0.256- 214 2.42 185 2.43 179 2.43 250 2.43  52 2.43 263 2.43 168 2.43 146 2.44
                           275 2.44 137 2.44 276 2.45  98 2.46
 201  0.437  0.121  0.434- 237 2.42 230 2.42 105 2.42 113 2.43 251 2.43 160 2.43  69 2.43 257 2.43
                            23 2.43 165 2.45   4 2.46  16 2.47
 202  0.811  0.034  0.125-  26 2.33 102 2.36 166 2.36  44 2.42 155 2.42   1 2.43 145 2.43 163 2.43
                           114 2.43
 203  0.936  0.622  0.522- 234 2.40 157 2.41 269 2.42  32 2.43  42 2.43  65 2.43 177 2.43 107 2.43
                            10 2.43 195 2.43  27 2.44  68 2.44
 204  0.439  0.124  0.655- 260 2.43 209 2.43  89 2.43  78 2.43   2 2.43 121 2.43  85 2.43 115 2.43
                            53 2.44  38 2.45 148 2.47  63 2.47
 205  0.812  0.534  0.124- 284 2.35 104 2.35  97 2.38 155 2.42 176 2.42  44 2.42 283 2.43 145 2.44
                           163 2.45
 206  0.437  0.454  0.345- 242 2.42 164 2.43  67 2.43 208 2.43  48 2.43  86 2.43 116 2.43 219 2.43
                             4 2.44 222 2.46 101 2.46 171 2.47
 207  0.811  0.204  0.345- 109 2.42  84 2.43 219 2.43  25 2.43  48 2.43 194 2.43  47 2.43  12 2.43
                           279 2.44  13 2.46 135 2.47 220 2.47
 208  0.312  0.704  0.345- 287 2.42 263 2.42 172 2.43 164 2.43 206 2.43 116 2.43 258 2.43 216 2.43
                            67 2.44 264 2.46 101 2.46  98 2.47
 209  0.689  0.124  0.655- 204 2.43  78 2.43  89 2.43 217 2.43 147 2.43  79 2.43 122 2.43  35 2.43
                           233 2.44  54 2.46  53 2.46 260 2.47
 210  0.566  0.873  0.300- 118 2.42  25 2.42 130 2.43 159 2.43  72 2.43  98 2.43 109 2.43 101 2.43
                           221 2.43 137 2.46 164 2.47 172 2.47
 211  0.064  0.540  0.744- 278 2.42  87 2.43 246 2.43  11 2.43 187 2.43  46 2.43 254 2.44 262 2.44
                           274 2.44 288 2.44 152 2.45 132 2.45
 212  0.939  0.955  0.212- 185 2.41  50 2.42 146 2.42 167 2.42  52 2.43 250 2.44  92 2.44 213 2.44
                            26 2.44  24 2.45  60 2.46 102 2.52
 213  0.814  0.704  0.212-  52 2.42 175 2.42 250 2.43 261 2.43  81 2.43 243 2.43  92 2.44 212 2.44
                           102 2.45 118 2.45 104 2.46  97 2.52
 214  0.066  0.873  0.300- 200 2.42 258 2.42 178 2.43  72 2.43  98 2.43 263 2.43 135 2.43 215 2.44
                           185 2.44 194 2.46 216 2.46  52 2.47
 215  0.191  0.124  0.300- 179 2.42 112 2.42 242 2.43  86 2.43 226 2.43 135 2.43 214 2.44 159 2.44
                            98 2.44 185 2.47  47 2.47 258 2.47
 216  0.062  0.704  0.345- 178 2.43 190 2.43 116 2.43 258 2.43 194 2.43  12 2.43  73 2.43 208 2.43
                           273 2.44 287 2.45 214 2.46 263 2.47
 217  0.811  0.039  0.610- 142 2.43 100 2.43 209 2.43 136 2.43 260 2.43 180 2.43 147 2.43  79 2.44
                            95 2.44 129 2.46 271 2.46 122 2.47
 218  0.063  0.371  0.434- 244 2.43 223 2.43 269 2.43 238 2.43 131 2.43 158 2.43 160 2.44 113 2.44
                            80 2.44  13 2.45 273 2.45 248 2.46
 219  0.562  0.203  0.345- 159 2.42  25 2.43   4 2.43 207 2.43 172 2.43  86 2.43  48 2.43  16 2.43
                           206 2.43  84 2.46 109 2.47 171 2.47
 220  0.816  0.374  0.300- 127 2.42  12 2.42  81 2.42 130 2.43 135 2.43 109 2.43 171 2.43 178 2.43
                           226 2.43  58 2.46  48 2.47 207 2.47
 221  0.562  0.039  0.256- 159 2.42 229 2.42 103 2.42  58 2.42 265 2.43  24 2.43 118 2.43 210 2.43
                           137 2.43 179 2.43  92 2.44 109 2.46
 222  0.564  0.537  0.390-   4 2.42 264 2.43  67 2.43  48 2.43  84 2.43 123 2.44  45 2.44 164 2.44
                           232 2.44 206 2.46 251 2.46 272 2.47
 223  0.062  0.205  0.478- 286 2.40 140 2.40 107 2.41 158 2.42 269 2.43  94 2.43 218 2.43 230 2.43
                           244 2.43 236 2.43  21 2.43 160 2.44
 224  0.312  0.872  0.788- 262 2.41 184 2.42  31 2.43  33 2.43 278 2.43  49 2.44 239 2.44 197 2.44
                             3 2.44   5 2.46   7 2.49 110 2.52
 225  0.937  0.958  0.700- 151 2.43 233 2.43 173 2.43  37 2.43 141 2.43  54 2.43 274 2.43  79 2.44
                            46 2.45 122 2.45   9 2.45 196 2.46
 226  0.066  0.373  0.300- 112 2.42 116 2.42 263 2.43 242 2.43 215 2.43 178 2.43 135 2.43 168 2.43
                           220 2.43  47 2.46 127 2.47  12 2.47
 227  0.689  0.624  0.655-  22 2.43  79 2.43  89 2.43  40 2.43 180 2.43  35 2.43 240 2.43  78 2.43
                           141 2.44  76 2.45 133 2.46 128 2.47
 228  0.687  0.456  0.566- 195 2.43 247 2.43 177 2.43 271 2.43  70 2.43   8 2.43 186 2.43  42 2.43
                            32 2.43  22 2.45 128 2.46 147 2.46
 229  0.439  0.955  0.212- 221 2.42 103 2.42 249 2.42  92 2.43 137 2.43 179 2.44 146 2.44 276 2.44
                           182 2.44 243 2.44 192 2.46 277 2.55
 230  0.312  0.204  0.478- 119 2.40 140 2.41 183 2.42 113 2.42 201 2.42  94 2.43 160 2.43 105 2.43
                           223 2.43 237 2.43 156 2.43 244 2.43
 231  0.813  0.543  0.875-  82 2.33  36 2.36 253 2.37 281 2.41  64 2.42 280 2.42  29 2.44 191 2.44
                           266 2.46
 232  0.688  0.621  0.434- 199 2.42  80 2.43 234 2.43 235 2.43 169 2.43 251 2.43 131 2.43 272 2.44
                            69 2.44 222 2.44  45 2.46 123 2.47
 233  0.812  0.207  0.700- 152 2.43  19 2.43  37 2.43 225 2.43  76 2.43  53 2.43  54 2.43 151 2.44
                           209 2.44 187 2.45  35 2.45 122 2.47
 234  0.812  0.705  0.478- 203 2.40 195 2.41  10 2.42 235 2.42 131 2.43 232 2.43 236 2.43 157 2.43
                            75 2.43 169 2.43 269 2.43 199 2.44
 235  0.812  0.871  0.434- 234 2.42  75 2.43  69 2.43 232 2.43 285 2.43 257 2.43 236 2.43 158 2.43
                           131 2.43  45 2.44 279 2.46 190 2.47
 236  0.937  0.955  0.478-  27 2.40 286 2.41  10 2.41 158 2.42 285 2.43  75 2.43 234 2.43 235 2.43
                            94 2.43 223 2.43 157 2.44  21 2.44
 237  0.562  0.204  0.478-  34 2.40 119 2.41 247 2.42 251 2.42 201 2.42 257 2.43 105 2.43  75 2.43
                            21 2.43 199 2.43 230 2.43 156 2.43
 238  0.188  0.621  0.434-  99 2.42 244 2.42 157 2.43 272 2.43 218 2.43 113 2.43 131 2.43  23 2.43
                           285 2.44 273 2.44 287 2.46  67 2.47
 239  0.314  0.041  0.744-  49 2.43  11 2.43  71 2.43  38 2.43   9 2.43  31 2.43 262 2.44 224 2.44
                            63 2.44 267 2.44   3 2.44 173 2.45
 240  0.939  0.624  0.655- 136 2.43 196 2.43  79 2.43 126 2.43 153 2.43  35 2.43 227 2.43 198 2.43
                           274 2.44 152 2.45  22 2.47 141 2.47
 241  0.565  0.711  0.833-  29 2.34  64 2.35 150 2.37 110 2.42   5 2.43  88 2.43  74 2.43 253 2.44
                            82 2.44  33 2.45  66 2.46 184 2.49
 242  0.316  0.373  0.300- 265 2.42 206 2.42 226 2.43 215 2.43 171 2.43 263 2.43 101 2.43 159 2.43
                           275 2.44  86 2.47 116 2.47 112 2.47
 243  0.564  0.704  0.212- 261 2.43 118 2.43  92 2.43 139 2.43 276 2.43  28 2.43 213 2.43 229 2.44
                           192 2.45  97 2.45 137 2.46 174 2.51
 244  0.187  0.455  0.478- 183 2.40 107 2.41  68 2.41 238 2.42 156 2.43 157 2.43 113 2.43  99 2.43
                           218 2.43 223 2.43 230 2.43 269 2.43
 245  0.315  0.045  0.875-  39 2.34   7 2.35 110 2.35 255 2.41 120 2.42 161 2.43 282 2.43 150 2.44
                           268 2.46
 246  0.186  0.458  0.699- 211 2.43 274 2.43  37 2.43 152 2.43 154 2.43  63 2.43 193 2.43 198 2.44
                            11 2.45 153 2.45 288 2.46  85 2.47
 247  0.562  0.373  0.522- 156 2.41 199 2.41 237 2.42   8 2.43 228 2.43 195 2.43  70 2.43 177 2.43
                           252 2.43  34 2.43 119 2.43 183 2.43
 248  0.189  0.288  0.390- 124 2.43 273 2.43  86 2.43  13 2.43  67 2.43 165 2.43   4 2.44 116 2.44
                           113 2.45 160 2.45  47 2.46 218 2.46
 249  0.314  0.205  0.212- 229 2.42 265 2.43 146 2.43 139 2.43 179 2.43 103 2.43  50 2.44 189 2.44
                           112 2.45 108 2.45 182 2.45 125 2.51
 250  0.064  0.704  0.212- 189 2.42 175 2.43 200 2.43 213 2.43 168 2.43 276 2.43 146 2.44 212 2.44
                            60 2.45  52 2.45  20 2.46 104 2.50
 251  0.562  0.371  0.434- 199 2.42 237 2.42 156 2.42 113 2.43 201 2.43  80 2.43 257 2.43 272 2.43
                           232 2.43   4 2.44 222 2.46  84 2.47
 252  0.437  0.623  0.522-  99 2.40 169 2.41 156 2.42  77 2.43 195 2.43  70 2.43 186 2.43 144 2.43
                            68 2.43  90 2.43 247 2.43 183 2.43
 253  0.816  0.712  0.833- 281 2.33 231 2.37  29 2.38  88 2.42 134 2.42  17 2.43 241 2.44  36 2.44
                            82 2.44  55 2.45 132 2.45  66 2.50
 254  0.062  0.373  0.788- 187 2.42 278 2.43 149 2.43   3 2.43 138 2.43  57 2.43 211 2.44  11 2.44
                           132 2.45 259 2.45  36 2.47 181 2.51
 255  0.437  0.293  0.876-  39 2.34  74 2.36 143 2.38 245 2.41 120 2.41  18 2.43 191 2.43 161 2.44
                            64 2.45
 256  0.311  0.034  0.124- 277 2.36 182 2.36 125 2.38 170 2.42 117 2.42   1 2.43 114 2.43  83 2.43
                           111 2.44
 257  0.687  0.121  0.434- 237 2.43  75 2.43  80 2.43  21 2.43 251 2.43 158 2.43 201 2.43 235 2.43
                            69 2.43  16 2.45  84 2.45 279 2.47
 258  0.186  0.954  0.345- 214 2.42 194 2.43 124 2.43 216 2.43 172 2.43 208 2.43  86 2.43 287 2.43
                            47 2.44 165 2.46  98 2.47 215 2.47
 259  0.065  0.211  0.833- 120 2.35 282 2.36 280 2.38  17 2.42   6 2.42   7 2.43  36 2.43  39 2.43
                           181 2.44 254 2.45   3 2.47 149 2.50
 260  0.560  0.039  0.610- 204 2.43 147 2.43 148 2.43  96 2.43 115 2.43 180 2.43 217 2.43  89 2.43
                            56 2.45   8 2.46  95 2.46 209 2.47
 261  0.688  0.455  0.212- 139 2.42  81 2.42 243 2.43  58 2.43 213 2.43 103 2.43 175 2.44  28 2.44
                           167 2.44  97 2.44 284 2.48  30 2.52
 262  0.189  0.791  0.744- 224 2.41  46 2.43   9 2.43 278 2.43 154 2.43  31 2.43 239 2.44 211 2.44
                           288 2.44 197 2.44 173 2.45 274 2.45
 263  0.191  0.623  0.300- 275 2.42 208 2.42 226 2.43 178 2.43 242 2.43 101 2.43  98 2.43 200 2.43
                           214 2.43 116 2.47 216 2.47 168 2.47
 264  0.440  0.787  0.389- 164 2.42 222 2.43 287 2.43  67 2.43  45 2.43  16 2.43 165 2.44 172 2.44
                            69 2.45 272 2.46 208 2.46  23 2.47
 265  0.436  0.288  0.256- 242 2.42 249 2.43 221 2.43 179 2.43  58 2.43 139 2.43 112 2.43 159 2.43
                            28 2.43 275 2.43 103 2.45 171 2.46
 266  0.066  0.543  0.875- 181 2.34  36 2.34 134 2.37  18 2.41 268 2.42 120 2.43 281 2.44 280 2.45
                           231 2.46
 267  0.565  0.041  0.744- 188 2.41  19 2.43 151 2.43  54 2.43  43 2.43  71 2.43  33 2.43  31 2.44
                           239 2.44  53 2.44  49 2.45  38 2.46
 268  0.188  0.792  0.876- 134 2.34   7 2.37   5 2.37 266 2.42 282 2.42 150 2.43  18 2.43 281 2.44
                           245 2.46
 269  0.937  0.454  0.478- 107 2.40 177 2.41 203 2.42  21 2.42 131 2.43 223 2.43  80 2.43 218 2.43
                           199 2.43 157 2.43 244 2.43 234 2.43
 270  0.565  0.541  0.744-  66 2.41  76 2.42  87 2.43 288 2.43  43 2.43  19 2.43  71 2.43  31 2.44
                           133 2.44 106 2.44 184 2.45 193 2.46
 271  0.812  0.206  0.566- 177 2.42  42 2.43 228 2.43  34 2.43  95 2.43   8 2.43 286 2.43  62 2.43
                           129 2.44 100 2.45 217 2.46 147 2.46
 272  0.437  0.621  0.434- 156 2.42  99 2.43 169 2.43 113 2.43 238 2.43 251 2.43  23 2.43 232 2.44
                            69 2.44  67 2.44 264 2.46 222 2.47
 273  0.065  0.538  0.390- 287 2.42  67 2.43 116 2.43 190 2.43 248 2.43 123 2.44  13 2.44 216 2.44
                           238 2.44 218 2.45 131 2.47  12 2.47
 274  0.062  0.707  0.700- 246 2.43 154 2.43  46 2.43 225 2.43 141 2.43 173 2.43 152 2.44 240 2.44
                           211 2.44 196 2.45 262 2.45 153 2.46
 275  0.311  0.538  0.256- 263 2.42 276 2.42 189 2.42 168 2.43 112 2.43 265 2.43 200 2.44 242 2.44
                            28 2.44 137 2.44 139 2.45 101 2.48
 276  0.314  0.704  0.212- 137 2.42 275 2.42 243 2.43 139 2.43 250 2.43 189 2.44 229 2.44 200 2.45
                           146 2.45 174 2.47 277 2.48  20 2.52
 277  0.307  0.866  0.166-  83 2.32 170 2.35 256 2.36  20 2.42  60 2.42 125 2.42 192 2.43 182 2.43
                           174 2.44 276 2.48 146 2.48 229 2.55
 278  0.186  0.623  0.788- 211 2.42 254 2.43 262 2.43 224 2.43 197 2.43 132 2.44 184 2.44 138 2.44
                           288 2.45 181 2.47 134 2.48   5 2.51
 279  0.816  0.038  0.389-  13 2.42 124 2.42 194 2.43 190 2.43  84 2.43  45 2.44 207 2.44  16 2.44
                           158 2.45 235 2.46  25 2.47 257 2.47
 280  0.936  0.293  0.875-   6 2.33  36 2.36 259 2.38 231 2.42  14 2.42 191 2.43 266 2.45 120 2.46
                           282 2.46
 281  0.937  0.791  0.875- 253 2.33 134 2.35  17 2.37 231 2.41 266 2.44  29 2.44 268 2.44  14 2.45
                           282 2.46
 282  0.066  0.042  0.875-   7 2.33  17 2.33 259 2.36 268 2.42 120 2.42 245 2.43 281 2.46 280 2.46
                            14 2.46
 283  0.562  0.533  0.125-  97 2.32  30 2.34 174 2.36 145 2.42 205 2.43 163 2.44 117 2.44  91 2.44
                           170 2.46
 284  0.807  0.367  0.166- 145 2.31 155 2.34 205 2.35  97 2.42  30 2.42 166 2.43  51 2.43 104 2.43
                            26 2.44 167 2.47 261 2.48 175 2.54
 285  0.062  0.871  0.434- 236 2.43 157 2.43 158 2.43 131 2.43 235 2.43  94 2.43 160 2.43 238 2.44
                            23 2.44 190 2.45 124 2.46 287 2.48
 286  0.937  0.123  0.522-  21 2.40 223 2.40 236 2.41 107 2.43  62 2.43 177 2.43 140 2.43 271 2.43
                           129 2.43  34 2.44  27 2.44  10 2.44
 287  0.190  0.787  0.389- 208 2.42 273 2.42  67 2.42 264 2.43 258 2.43 165 2.44 190 2.44 124 2.44
                           216 2.45  23 2.46 238 2.46 285 2.48
 288  0.315  0.540  0.744- 184 2.42  71 2.42 193 2.43 270 2.43  31 2.43  11 2.43 262 2.44 138 2.44
                           211 2.44 154 2.44 278 2.45 246 2.46